TIME ,SF  ,PUSHOVER LABEL ,PUSHOVER LAMBDA ,PUSHOVER U-CTRL ,ARC LENGTH STEP ,ARC LENGTH U-NORM ,ARC LENGTH LOAD FACTOR ,NR     ,X        ,Y         ,Displacement-X ,Displacement-Y ,Rotation-Z ,Pore pressure- ,Total head- ,Residual Force-X ,Residual Force-Y ,Residual Heat flux-Z ,Solid-Velocity-X ,Solid-Velocity-Y ,Solid-Acceleration-X ,Solid-Acceleration-Y ,Unnamed: 23 ,PUSHOVER LABEL         ,PUSHOVER LAMBDA ,PUSHOVER U-CTRL ,ARC LENGTH STEP ,ARC LENGTH U-NORM ,ARC LENGTH LOAD FACTOR ,ELEM. ,GP  ,X                    ,Y                  ,Z   ,Eff.Stress-XX       ,Eff.Stress-YY       ,Eff.Stress-XY           ,Eff.Stress-ZZ       ,Eff.Stress-XZ ,Eff.Stress-YZ ,Eff.Stress-11       ,Eff.Stress-22       ,Eff.Stress-33       ,Eff.Stress-I1       ,Eff.Stress-J2^1/2    ,Eff.Stress-p        ,Eff.Stress-q         ,Tot.Stress-XX         ,Tot.Stress-YY       ,Tot.Stress-XY           ,Tot.Stress-ZZ       ,Tot.Stress-XZ ,Tot.Stress-YZ ,Tot.Stress-11        ,Tot.Stress-22       ,Tot.Stress-33       ,Tot.Stress-I1       ,Tot.Stress-J2^1/2    ,Tot.Stress-p         ,Tot.Stress-q         ,Strain-XX               ,Strain-YY               ,Strain-XY               ,Strain-ZZ ,Strain-XZ ,Strain-YZ ,Strain-11               ,Strain-22               ,Strain-33 ,Strain-I1               ,Strain-J2^1/2          ,Stress level         ,Saturation              ,Fluid velocity-X        ,Fluid velocity-Y        ,Fluid velocity-Z       ,Fluid velocity-ABS     ,Pc  ,Pore pressure         ,alpha*(S*pF+<dpF_undr>) ,Temperature ,Unnamed: 60 ,TIME
 0.0 ,0.0 ,           0.0 ,            0.0 ,            0.0 ,            0.0 ,              0.0 ,                   0.0 ,   1.0 ,50.0     ,-12.0     ,           0.0 ,           0.0 ,       0.0 ,66.79613       ,-18.67961   ,-0.01066671      ,-0.0006764207    ,                 0.0 ,             0.0 ,             0.0 ,                 0.0 ,                 0.0 ,        0.0 ,1.9420850464433876     ,            0.0 ,            0.0 ,            0.0 ,              0.0 ,                   0.0 ,  0.0 ,0.0 , 327.9540774157042   ,1.0                ,0.0 ,-116.1910915688829  ,-214.89190809030282 ,0.8390605411054678      ,-108.78236754584947 ,          0.0 ,          0.0 ,-116.17864117232182 ,-214.9043584868639  ,-108.78236754584947 ,-439.86537177703485 , 59.26857184376086   ,146.62179059234495  ,102.65615731197467   ,-111.20524765719804   ,-209.90608703861614 ,0.8390605411054678      ,-103.79653155866815 ,          0.0 ,          0.0 ,-111.19281554863548  ,-209.91849171518086 ,-103.79653155866815 ,-424.90785711048306 , 59.26857184376086   ,141.63596954065827   ,102.65615731197467   ,-3.7431651342193925e-06 ,1.0178381494885256e-06  ,-2.217912363775187e-07  ,      0.0 ,      0.0 ,      0.0 ,1.0229667059926585e-06  ,-3.748293725472497e-06  ,      0.0 ,-2.725327033219375e-06  ,2.5221582908932033e-06 ,0.2907885996936229   ,0.029011129187660592    ,-4.093590875041108e-07  ,2.6435027579024942e-09  ,1.1301300387862197e-06 ,32.248372947242736     ,0.0 ,35.95212945463482     ,2.2813926142819         ,        0.0 ,        0.0 , 0.0
 0.0 ,0.0 ,           0.0 ,            0.0 ,            0.0 ,            0.0 ,              0.0 ,                   0.0 ,   2.0 ,48.07692 ,-11.96154 ,           0.0 ,           0.0 ,       0.0 ,67.21634       ,-18.68317   ,-0.01511697      ,-0.0004115128    ,                 0.0 ,             0.0 ,             0.0 ,                 0.0 ,                 0.0 ,        0.0 ,1.7580861101867165     ,            0.0 ,            0.0 ,            0.0 ,              0.0 ,                   0.0 ,  0.0 ,0.0 , 301.33243911291356  ,1.0                ,0.0 ,-118.13853880625553 ,-215.69205184843545 ,-0.7202942822227821     ,-109.51653563624821 ,          0.0 ,          0.0 ,-118.11842482682297 ,-215.71217820968258 ,-109.51653563624821 ,-443.3471603877798  , 58.99297122908948   ,147.78240311426597  ,102.17879716450432   ,-113.15340070695686   ,-210.7069068922882  ,-0.7202942822227821     ,-104.53139753694956 ,          0.0 ,          0.0 ,-113.13326501249824  ,-210.7270326812952  ,-104.53139753694956 ,-428.39170018346886 , 58.99297122908948   ,142.7972333944896    ,102.17879716450432   ,-3.5598847205923696e-06 ,7.385595097222641e-07   ,-6.307422425105108e-07  ,      0.0 ,      0.0 ,      0.0 ,7.670341741203997e-07   ,-3.5883593124163387e-06 ,      0.0 ,-2.8213252861064763e-06 ,2.330387595376101e-06  ,0.1877066589794089   ,0.02007958111301482     ,-2.942216147082213e-07  ,-4.151784236309126e-10  ,1.2410402133257243e-06 ,54.26213811204465      ,0.0 ,14.521408608322135    ,1.2053949829837995      ,        0.0 ,        0.0 , 0.0
 0.0 ,0.0 ,           0.0 ,            0.0 ,            0.0 ,            0.0 ,              0.0 ,                   0.0 ,   3.0 ,46.15385 ,-11.92308 ,           0.0 ,           0.0 ,       0.0 ,67.63554       ,-18.68663   ,-0.0112379       ,-0.0002536291    ,                 0.0 ,             0.0 ,             0.0 ,                 0.0 ,                 0.0 ,        0.0 ,0.8248479198616014     ,            0.0 ,            0.0 ,            0.0 ,              0.0 ,                   0.0 ,  0.0 ,0.0 , 314.0013053401598   ,1.0                ,0.0 ,-117.17333526049671 ,-217.2655160623267  ,-1.7384414163502497     ,-110.00640434858983 ,          0.0 ,          0.0 ,-117.13751676983065 ,-217.30133630451357 ,-110.00640434858983 ,-444.44533807395135 , 60.00661029770086   ,148.14846768117846  ,103.93447792342582   ,-112.18761263878592   ,-212.27972188105593 ,-1.7384414163502497     ,-105.02067680617    ,          0.0 ,          0.0 ,-112.15172117089247  ,-212.31560876209375 ,-105.02067680617    ,-429.48802216899014 , 60.00661029770086   ,143.1626734999077    ,103.93447792342582   ,-2.384261925391037e-06  ,5.691087294527367e-07   ,-1.1281392417267481e-06 ,      0.0 ,      0.0 ,      0.0 ,7.128218669788932e-07   ,-2.5279748630006405e-06 ,      0.0 ,-1.815153262577151e-06  ,1.7101559499738587e-06 ,0.4644794683043799   ,0.06445090951308459     ,-9.003215332664436e-07  ,-3.709457259919376e-09  ,8.589918258000697e-08  ,12.621243819130422     ,0.0 ,56.7695723661404      ,4.195011837736623       ,        0.0 ,        0.0 , 0.0
 0.0 ,0.0 ,           0.0 ,            0.0 ,            0.0 ,            0.0 ,              0.0 ,                   0.0 ,   4.0 ,44.23077 ,-11.88462 ,           0.0 ,           0.0 ,       0.0 ,68.05348       ,-18.68996   ,-0.0133089       ,-6.711295e-06    ,                 0.0 ,             0.0 ,             0.0 ,                 0.0 ,                 0.0 ,        0.0 ,1.0                    ,            0.0 ,            0.0 ,            0.0 ,              0.0 ,                   0.0 ,  0.0 ,0.0 , 388.18436052792686  ,1.0                ,0.0 ,-113.81291117747014 ,-217.58811350980147 ,-2.476773761292523      ,-109.51541394996792 ,          0.0 ,          0.0 ,-113.75003725991647 ,-217.65098742735518 ,-109.51541394996792 ,-440.9164565151563  , 61.25786552507165   ,146.97218046064216  ,106.10173288705894   ,-108.82833298983587   ,-212.6034889132498  ,-2.476773761292523      ,-104.530822364563   ,          0.0 ,          0.0 ,-108.76539926559416  ,-212.66639584195025 ,-104.530822364563   ,-425.962630869878   , 61.25786552507165   ,141.9875709973204    ,106.10173288705894   ,-2.951534740228173e-06  ,1.147614407008101e-06   ,-2.9276888420748878e-06 ,      0.0 ,      0.0 ,      0.0 ,1.6570310079717148e-06  ,-3.4609512118918864e-06 ,      0.0 ,-1.8039203813644486e-06 ,2.617629098450706e-06  ,0.22488830162399592  ,0.033455694005924255    ,-8.679026771108998e-07  ,-8.936124211460092e-09  ,3.631395398273185e-07  ,53.35641483951287      ,0.0 ,16.83593202943869     ,1.6417254783776065      ,        0.0 ,        0.0 , 0.0
 0.0 ,0.0 ,           0.0 ,            0.0 ,            0.0 ,            0.0 ,              0.0 ,                   0.0 ,   5.0 ,42.30769 ,-11.84615 ,           0.0 ,           0.0 ,       0.0 ,68.46975       ,-18.69313   ,-0.01205367      ,5.470805e-05     ,                 0.0 ,             0.0 ,             0.0 ,                 0.0 ,                 0.0 ,        0.0 ,1.9603567113199332     ,            0.0 ,            0.0 ,            0.0 ,              0.0 ,                   0.0 ,  0.0 ,0.0 , 417.6573138998773   ,1.0                ,0.0 ,-112.53226968713011 ,-217.82568209570456 ,-2.9151792224699022     ,-109.39480080358967 ,          0.0 ,          0.0 ,-112.45118905982002 ,-217.90676272301465 ,-109.39480080358967 ,-439.7527525864243  , 61.78736481768623   ,146.5842604908832   ,107.01886956666084   ,-107.54898182629495   ,-212.8423932594079  ,-2.9151792224699022     ,-104.41149367313736 ,          0.0 ,          0.0 ,-107.46789924806191  ,-212.923473886718   ,-104.41149367313736 ,-424.8028629815952  , 61.78736481768623   ,141.60097165458654   ,107.01886956666084   ,-3.62140172095442e-06   ,1.4364605465373954e-06  ,-1.8484768198146145e-06 ,      0.0 ,      0.0 ,      0.0 ,1.6964677336145234e-06  ,-3.881409115895001e-06  ,      0.0 ,-2.184941336088599e-06  ,2.8613647219473535e-06 ,0.07741759810330813  ,-1.8524301382687094e-06 ,-1.7181267694250566e-08 ,0.0                     ,1.8525314412708655e-06 ,69.90899712344617      ,0.0 ,0.0                   ,0.0                     ,        0.0 ,        0.0 , 0.0
 0.0 ,0.0 ,           0.0 ,            0.0 ,            0.0 ,            0.0 ,              0.0 ,                   0.0 ,   6.0 ,40.38462 ,-11.80769 ,           0.0 ,           0.0 ,       0.0 ,68.88423       ,-18.69612   ,-0.008740712     ,0.000407249      ,                 0.0 ,             0.0 ,             0.0 ,                 0.0 ,                 0.0 ,        0.0 ,2.7387262742572567     ,            0.0 ,            0.0 ,            0.0 ,              0.0 ,                   0.0 ,  0.0 ,0.0 , 416.41209545815866  ,1.0                ,0.0 ,-112.53921592152741 ,-217.4027041189259  ,-3.120509909307975      ,-109.27782152727485 ,          0.0 ,          0.0 ,-112.446352706836   ,-217.49554280517228 ,-109.27782152727485 ,-439.2197399688006  , 61.588340000373975  ,146.40656417027935  ,106.67413209881065   ,-107.55492949104011   ,-212.41842752854586 ,-3.120509909307975      ,-104.29354789814681 ,          0.0 ,          0.0 ,-107.46207907770795  ,-212.51126621479222 ,-104.29354789814681 ,-424.266887268143   , 61.588340000373975  ,141.42228757989932   ,106.67413209881065   ,-3.719342471075346e-06  ,1.4222057815686776e-06  ,-1.9979582294052063e-06 ,      0.0 ,      0.0 ,      0.0 ,1.7371272039695905e-06  ,-4.034263942533149e-06  ,      0.0 ,-2.2971367140351133e-06 ,2.9629195712566933e-06 ,0.1854699055245242   ,0.028301255353380458    ,-8.042683545405109e-07  ,-3.842066948394383e-08  ,9.155612168761208e-07  ,59.680567062776426     ,0.0 ,10.557952742214033    ,1.2182307315352507      ,        0.0 ,        0.0 , 0.0
 0.0 ,0.0 ,           0.0 ,            0.0 ,            0.0 ,            0.0 ,              0.0 ,                   0.0 ,   7.0 ,38.46154 ,-11.76923 ,           0.0 ,           0.0 ,       0.0 ,69.29638       ,-18.69887   ,-0.006983664     ,-0.0004837743    ,                 0.0 ,             0.0 ,             0.0 ,                 0.0 ,                 0.0 ,        0.0 ,3.4849445049113568     ,            0.0 ,            0.0 ,            0.0 ,              0.0 ,                   0.0 ,  0.0 ,0.0 , 335.1906082581652   ,1.0                ,0.0 ,-114.03876366051617 ,-216.80249755154446 ,-3.0087654903303873     ,-109.37310150922343 ,          0.0 ,          0.0 ,-113.95039566752092 ,-216.89081449664496 ,-109.37310150922343 ,-440.2144114445619  , 60.807680978215     ,146.7381207545431   ,105.322005360625     ,-109.05191297969859   ,-211.8156058420806  ,-3.0087654903303873     ,-104.38625572361639 ,          0.0 ,          0.0 ,-108.96354988191386  ,-211.90397360624848 ,-104.38625572361639 ,-425.25378900219977 , 60.807680978215     ,141.75127986414657   ,105.322005360625     ,-3.928230702211868e-06  ,1.0767925468840524e-06  ,-2.6339383326127636e-06 ,      0.0 ,      0.0 ,      0.0 ,1.5779076578275255e-06  ,-4.429345966070198e-06  ,      0.0 ,-2.851438206375711e-06  ,3.134448844532201e-06  ,0.30945678645783536  ,0.04134855949709364     ,-1.510691245723011e-06  ,-1.6635862483366445e-08 ,2.9051449279864e-07    ,39.30076356533135      ,0.0 ,31.42544231021951     ,2.5440007595427985      ,        0.0 ,        0.0 , 0.0
 0.0 ,0.0 ,           0.0 ,            0.0 ,            0.0 ,            0.0 ,              0.0 ,                   0.0 ,   8.0 ,36.53846 ,-11.73077 ,           0.0 ,           0.0 ,       0.0 ,69.70558       ,-18.70133   ,-0.01141437      ,-0.0003707283    ,                 0.0 ,             0.0 ,             0.0 ,                 0.0 ,                 0.0 ,        0.0 ,1.7133298917229436     ,            0.0 ,            0.0 ,            0.0 ,              0.0 ,                   0.0 ,  0.0 ,0.0 , 303.5713279085871   ,1.0                ,0.0 ,-114.80994097658552 ,-215.97832931725048 ,-3.0130295308001913     ,-109.23138576224417 ,          0.0 ,          0.0 ,-114.71974441033905 ,-216.06847309851088 ,-109.23138576224417 ,-440.0196536105814  , 60.166017722338026  ,146.67322708720164  ,104.210597699494     ,-109.8237532761058    ,-210.99209127728346 ,-3.0130295308001913     ,-104.24519806176448 ,          0.0 ,          0.0 ,-109.73355670985934  ,-211.08228295253235 ,-104.24519806176448 ,-425.0610076276339  , 60.166017722338026  ,141.6870092901996    ,104.210597699494     ,-2.6549982002003235e-06 ,4.5374238501095416e-07  ,-7.019216971934934e-07  ,      0.0 ,      0.0 ,      0.0 ,5.37986907544833e-07    ,-2.739242755812074e-06  ,      0.0 ,-2.20125572482824e-06   ,1.7590650888061787e-06 ,0.2961871208705572   ,0.03871969988579984     ,-1.4194366454565893e-06 ,-1.5340525946698936e-08 ,3.312651908111421e-07  ,41.19182716088436      ,0.0 ,29.523808606085606    ,2.386860617515457       ,        0.0 ,        0.0 , 0.0
 0.0 ,0.0 ,           0.0 ,            0.0 ,            0.0 ,            0.0 ,              0.0 ,                   0.0 ,   9.0 ,34.61538 ,-11.69231 ,           0.0 ,           0.0 ,       0.0 ,70.1114        ,-18.70345   ,-0.01604189      ,-0.0001227645    ,                 0.0 ,             0.0 ,             0.0 ,                 0.0 ,                 0.0 ,        0.0 ,1.8509700527552106     ,            0.0 ,            0.0 ,            0.0 ,              0.0 ,                   0.0 ,  0.0 ,0.0 , 306.5416368990752   ,1.0                ,0.0 ,-113.49377939085275 ,-215.25490973812026 ,-3.302397342079544      ,-108.71264789957934 ,          0.0 ,          0.0 ,-113.38659046734949 ,-215.36213210336592 ,-108.71264789957934 ,-437.4613704702947  , 60.27394295813359   ,145.82046378129553  ,104.39751182462714   ,-108.50711438764031   ,-210.26822398335037 ,-3.302397342079544      ,-103.7259828963669  ,          0.0 ,          0.0 ,-108.39989963650561  ,-210.37544634859603 ,-103.7259828963669  ,-422.50129531769187 , 60.27394295813359   ,140.83373177256394   ,104.39751182462714   ,-2.2186422826959562e-06 ,4.741524078281487e-07   ,-2.831177634642081e-06  ,      0.0 ,      0.0 ,      0.0 ,1.1380306942860321e-06  ,-2.8825205453761074e-06 ,      0.0 ,-1.7444896630077716e-06 ,2.0853295373702615e-06 ,0.07177474477838514  ,-9.19816854227623e-07   ,1.3844632923597246e-08  ,0.0                     ,9.199273162024539e-07  ,72.2919817965811       ,0.0 ,0.0                   ,0.0                     ,        0.0 ,        0.0 , 0.0
 0.0 ,0.0 ,           0.0 ,            0.0 ,            0.0 ,            0.0 ,              0.0 ,                   0.0 ,  10.0 ,32.69231 ,-11.65385 ,           0.0 ,           0.0 ,       0.0 ,70.51313       ,-18.70516   ,-0.01829915      ,-0.0002919041    ,                 0.0 ,             0.0 ,             0.0 ,                 0.0 ,                 0.0 ,        0.0 ,3.47197573522878       ,            0.0 ,            0.0 ,            0.0 ,              0.0 ,                   0.0 ,  0.0 ,0.0 , 338.8023843671612   ,1.0                ,0.0 ,-111.34790173115177 ,-214.69230187388555 ,-3.364513830137274      ,-108.09012851656973 ,          0.0 ,          0.0 ,-111.23852602123085 ,-214.80172478138    ,-108.09012851656973 ,-434.1303587381627  , 60.728068936734665  ,144.71010287850004  ,105.18410792248241   ,-106.36050298703552   ,-209.7048199154146  ,-3.364513830137274      ,-103.10271433669011 ,          0.0 ,          0.0 ,-106.25107493428662  ,-209.81424282290902 ,-103.10271433669011 ,-419.16801151286796 , 60.728068936734665  ,139.72267237257364   ,105.18410792248241   ,-3.615100785803016e-06  ,8.838098020442422e-07   ,-2.5239194884524156e-06 ,      0.0 ,      0.0 ,      0.0 ,1.2209392493793551e-06  ,-3.952230891956059e-06  ,      0.0 ,-2.7312908920633907e-06 ,2.7087972547484e-06    ,0.07660651180732672  ,0.0010873139935279991   ,-3.275756812104045e-08  ,3.5045863910252314e-10  ,1.2953623830469865e-06 ,71.26153837181354      ,0.0 ,0.8342047540626       ,0.06727425427520858     ,        0.0 ,        0.0 , 0.0
 0.0 ,0.0 ,           0.0 ,            0.0 ,            0.0 ,            0.0 ,              0.0 ,                   0.0 ,  11.0 ,30.76923 ,-11.61538 ,           0.0 ,           0.0 ,       0.0 ,70.90922       ,-18.70631   ,-0.02065014      ,-0.0003171906    ,                 0.0 ,             0.0 ,             0.0 ,                 0.0 ,                 0.0 ,        0.0 ,3.4628890522976024     ,            0.0 ,            0.0 ,            0.0 ,              0.0 ,                   0.0 ,  0.0 ,0.0 , 343.9919687356343   ,0.9999999999999999 ,0.0 ,-109.88251014909684 ,-214.12767649895534 ,-3.475688747302858      ,-107.60822427605015 ,          0.0 ,          0.0 ,-109.76669672676431 ,-214.24353739241968 ,-107.60822427605015 ,-431.6184363196829  , 60.95402928006675   ,143.87280963249782  ,105.57549183986208   ,-104.89495449008021   ,-209.1400926999848  ,-3.475688747302858      ,-102.62065545927146 ,          0.0 ,          0.0 ,-104.77913746997802  ,-209.25590139341114 ,-102.62065545927146 ,-416.6556746115625  , 60.95402928006675   ,138.88522734458402   ,105.57549183986208   ,-3.3980688992063233e-06 ,8.306095628519717e-07   ,-2.6717214342103054e-06 ,      0.0 ,      0.0 ,      0.0 ,1.242280471278586e-06   ,-3.809739929207987e-06  ,      0.0 ,-2.5674592576632127e-06 ,2.635582729743783e-06  ,0.3167052312956518   ,0.04035320839534658     ,-6.739436854866902e-07  ,-9.79419284670524e-09   ,6.536200262229084e-07  ,38.63880358835983      ,0.0 ,33.885115354134435    ,2.602148827307996       ,        0.0 ,        0.0 , 0.0
 0.0 ,0.0 ,           0.0 ,            0.0 ,            0.0 ,            0.0 ,              0.0 ,                   0.0 ,  12.0 ,28.84615 ,-11.57692 ,           0.0 ,           0.0 ,       0.0 ,71.29723       ,-18.70665   ,-0.02182983      ,-0.0002212219    ,                 0.0 ,             0.0 ,             0.0 ,                 0.0 ,                 0.0 ,        0.0 ,1.8962196032808052     ,            0.0 ,            0.0 ,            0.0 ,              0.0 ,                   0.0 ,  0.0 ,0.0 , 343.3461567551135   ,1.0                ,0.0 ,-109.02350149969175 ,-213.36832958341654 ,-3.4413613909657332     ,-107.15728383544672 ,          0.0 ,          0.0 ,-108.90998756097603 ,-213.48184302759483 ,-107.15728383544672 ,-429.5491135548352  , 60.89032432474211   ,143.18305263939556  ,105.46514676219138   ,-104.03597736718481   ,-208.38078615147052 ,-3.4413613909657332     ,-102.16976005061275 ,          0.0 ,          0.0 ,-103.92246377614205  ,-208.49430391548623 ,-102.16976005061275 ,-414.5865380003883  , 60.89032432474211   ,138.1955152656518    ,105.46514676219138   ,-1.0135477681665658e-06 ,5.433451527236371e-08   ,-1.0385764459434417e-06 ,      0.0 ,      0.0 ,      0.0 ,2.6723353338773303e-07  ,-1.2264464312987187e-06 ,      0.0 ,-9.592131745212842e-07  ,7.968182927870022e-07  ,0.29603916719003265  ,0.037643780875142675    ,-7.108182444312433e-07  ,-9.396082106202326e-09  ,1.0395899508552631e-07 ,41.94588579806794      ,0.0 ,30.375288912039604    ,2.38457402820496        ,        0.0 ,        0.0 , 0.0
 0.0 ,0.0 ,           0.0 ,            0.0 ,            0.0 ,            0.0 ,              0.0 ,                   0.0 ,  13.0 ,26.92308 ,-11.53846 ,           0.0 ,           0.0 ,       0.0 ,71.67748       ,-18.70621   ,-0.02089361      ,-7.466591e-05    ,                 0.0 ,             0.0 ,             0.0 ,                 0.0 ,                 0.0 ,        0.0 ,0.9069772154048308     ,            0.0 ,            0.0 ,            0.0 ,              0.0 ,                   0.0 ,  0.0 ,0.0 , 414.07663748855595  ,1.0                ,0.0 ,-107.28799678713378 ,-212.66468441443502 ,-3.7313072437556736     ,-106.56633474317442 ,          0.0 ,          0.0 ,-107.15287391142124 ,-212.79977383785587 ,-106.56633474317442 ,-426.5189963927288  , 61.16572251376279   ,142.1730080644278   ,105.94212806785782   ,-102.30277524704579   ,-207.67945418456284 ,-3.7313072437556736     ,-101.58111042303096 ,          0.0 ,          0.0 ,-102.16765237133323  ,-207.81459313299874 ,-101.58111042303096 ,-411.56334915203314 , 61.16572251376279   ,137.18779955901607   ,105.94212806785782   ,-3.9588897893939695e-07 ,2.5463045206034847e-08  ,-6.315184850813181e-07  ,      0.0 ,      0.0 ,      0.0 ,1.9437666784859972e-07  ,-5.648026015819619e-07  ,      0.0 ,-3.7042582036121015e-07 ,3.943638967516937e-07  ,0.07367799224540109  ,-6.557264598580082e-07  ,-1.9839916120022684e-07 ,0.0                     ,9.758005015694023e-07  ,72.18932796978403      ,0.0 ,0.0                   ,0.0                     ,        0.0 ,        0.0 , 0.0
 0.0 ,0.0 ,           0.0 ,            0.0 ,            0.0 ,            0.0 ,              0.0 ,                   0.0 ,  14.0 ,25.0     ,-11.5     ,           0.0 ,           0.0 ,       0.0 ,72.0429        ,-18.70429   ,-0.01967762      ,-0.002615686     ,                 0.0 ,             0.0 ,             0.0 ,                 0.0 ,                 0.0 ,        0.0 ,0.0                    ,            0.0 ,            0.0 ,            0.0 ,              0.0 ,                   0.0 ,  0.0 ,0.0 , 411.940744202632    ,1.0                ,0.0 ,-106.21587226421133 ,-211.8240295501528  ,-3.6731456617151754     ,-106.0446956627469  ,          0.0 ,          0.0 ,-106.08653275770699 ,-211.95336554975964 ,-106.0446956627469  ,-424.08463915682705 , 61.1343925306423    ,141.36157135986372  ,105.8878630502366    ,-101.23046221891268   ,-206.8386185730338  ,-3.6731456617151754     ,-101.05928070024902 ,          0.0 ,          0.0 ,-101.10112528748552  ,-206.9679803234123  ,-101.05928070024902 ,-409.1283593830285  , 61.1343925306423    ,136.3761112107523    ,105.8878630502366    ,0.0                     ,0.0                     ,0.0                     ,      0.0 ,      0.0 ,      0.0 ,0.0                     ,0.0                     ,      0.0 ,0.0                     ,0.0                    ,0.07353773779567516  ,8.376752681825568e-07   ,-3.776716588096519e-07  ,0.0                     ,9.396987260395121e-07  ,72.0333384706804       ,0.0 ,0.0                   ,0.0                     ,        0.0 ,        0.0 , 0.0
 0.0 ,0.0 ,           0.0 ,            0.0 ,            0.0 ,            0.0 ,              0.0 ,                   0.0 ,  15.0 ,23.07692 ,-11.46154 ,           0.0 ,           0.0 ,       0.0 ,72.38741       ,-18.70028   ,-0.02396541      ,-0.002697774     ,                 0.0 ,             0.0 ,             0.0 ,                 0.0 ,                 0.0 ,        0.0 ,1.5252192263102193     ,            0.0 ,            0.0 ,            0.0 ,              0.0 ,                   0.0 ,  0.0 ,0.0 , 335.6853568381708   ,1.0                ,0.0 ,-105.57744484261178 ,-211.15155500749597 ,-3.67679629241965       ,-105.66430452059433 ,          0.0 ,          0.0 ,-105.44872658491155 ,-211.28028010849755 ,-105.66430452059433 ,-422.39329936248475 , 61.03975295168282   ,140.79776579119948  ,105.72396644314264   ,-100.58946744551965   ,-206.16353834443748 ,-3.67679629241965       ,-100.67627628286131 ,          0.0 ,          0.0 ,-100.46070326311444  ,-206.2922614565527  ,-100.67627628286131 ,-407.42929685138665 , 61.03975295168282   ,135.80974943574557   ,105.72396644314264   ,-2.0663059990360326e-06 ,3.0503474478732695e-07  ,-6.099382190399095e-07  ,      0.0 ,      0.0 ,      0.0 ,3.436275702332179e-07   ,-2.104899129525769e-06  ,      0.0 ,-1.761271305089347e-06  ,1.325642256921892e-06  ,0.07032355001562175  ,0.00015412470328807185  ,-1.781403184470234e-07  ,-1.3807879245189489e-09 ,1.5922364544559808e-06 ,72.96257927010191      ,0.0 ,0.30453943270143174   ,0.015360655065101689    ,        0.0 ,        0.0 , 0.0
 0.0 ,0.0 ,           0.0 ,            0.0 ,            0.0 ,            0.0 ,              0.0 ,                   0.0 ,  16.0 ,21.15385 ,-11.42308 ,           0.0 ,           0.0 ,       0.0 ,72.70719       ,-18.6938    ,-0.03166551      ,-0.002782471     ,                 0.0 ,             0.0 ,             0.0 ,                 0.0 ,                 0.0 ,        0.0 ,2.72839692129776       ,            0.0 ,            0.0 ,            0.0 ,              0.0 ,                   0.0 ,  0.0 ,0.0 , 308.48121761539664  ,1.0                ,0.0 ,-104.35840383305157 ,-210.39742683638013 ,-3.9327051386614738     ,-105.13423284424887 ,          0.0 ,          0.0 ,-104.21250460485516 ,-210.5433889903859  ,-105.13423284424887 ,-419.8900857170471  , 61.12705826237752   ,139.96334588735397  ,105.87517497296419   ,-99.3707107979625     ,-205.40973627976177 ,-3.9327051386614738     ,-100.14648927570396 ,          0.0 ,          0.0 ,-99.22476351478095   ,-205.55565037878236 ,-100.14648927570396 ,-404.92696599220676 , 61.12705826237752   ,134.9756553307356    ,105.87517497296419   ,-3.251366442042469e-06  ,3.0251957584405174e-07  ,-2.045602216777323e-06  ,      0.0 ,      0.0 ,      0.0 ,6.678534682741793e-07   ,-3.6167006088819236e-06 ,      0.0 ,-2.948846900332819e-06  ,2.3059319097493263e-06 ,0.32233190572179493  ,0.03260850166336349     ,-5.968262746677912e-07  ,-8.493141903454754e-09  ,1.2128645755238297e-06 ,31.53141364715784      ,0.0 ,43.13371478366733     ,2.59191251807977        ,        0.0 ,        0.0 , 0.0
 0.0 ,0.0 ,           0.0 ,            0.0 ,            0.0 ,            0.0 ,              0.0 ,                   0.0 ,  17.0 ,19.23077 ,-11.38462 ,           0.0 ,           0.0 ,       0.0 ,72.9968        ,-18.68429   ,-0.03804359      ,-0.003223997     ,                 0.0 ,             0.0 ,             0.0 ,                 0.0 ,                 0.0 ,        0.0 ,2.4668406612882166     ,            0.0 ,            0.0 ,            0.0 ,              0.0 ,                   0.0 ,  0.0 ,0.0 , 335.9331899851526   ,1.0                ,0.0 ,-103.11239784047513 ,-209.8433126399925  ,-3.8940686895165526     ,-104.67788954851464 ,          0.0 ,          0.0 ,-102.97000516015997 ,-209.985695329651   ,-104.67788954851464 ,-417.6336384504341  , 61.29873838970364   ,139.21119671058648  ,106.17251995682174   ,-98.12387828782126    ,-204.85478146207353 ,-3.8940686895165526     ,-99.68936836125228  ,          0.0 ,          0.0 ,-97.9814856075061    ,-204.99721410501513 ,-99.68936836125228  ,-402.6680965045688  , 61.29873838970364   ,134.2227154859506    ,106.17251995682174   ,-2.464033752388336e-06  ,-6.83759806752965e-08   ,-3.114661940725819e-06  ,      0.0 ,      0.0 ,      0.0 ,6.997448589637037e-07   ,-3.232154441551017e-06  ,      0.0 ,-2.532409582587313e-06  ,2.0982859570038795e-06 ,0.5593086232840173   ,0.06725473079776674     ,-1.2951605769186375e-06 ,-3.666664201635177e-08  ,0.0                    ,1.3991166243297178e-06 ,0.0 ,75.21385459164087     ,4.98852253248462        ,        0.0 ,        0.0 , 0.0
 0.0 ,0.0 ,           0.0 ,            0.0 ,            0.0 ,            0.0 ,              0.0 ,                   0.0 ,  18.0 ,17.30769 ,-11.34615 ,           0.0 ,           0.0 ,       0.0 ,73.24689       ,-18.67084   ,-0.04385674      ,-0.003732238     ,                 0.0 ,             0.0 ,             0.0 ,                 0.0 ,                 0.0 ,        0.0 ,3.449089987143462      ,            0.0 ,            0.0 ,            0.0 ,              0.0 ,                   0.0 ,  0.0 ,0.0 , 339.6924646502876   ,1.0                ,0.0 ,-100.8052056374515  ,-209.23316926658387 ,-4.019338501353689      ,-103.98779493206263 ,          0.0 ,          0.0 ,-100.6556378322465  ,-209.3827759200883  ,-103.98779493206263 ,-414.0261584637905  , 61.84052449671595   ,138.0087046653352   ,107.11091398187646   ,-95.81648052711896    ,-204.2444331380511  ,-4.019338501353689      ,-98.9990701758373   ,          0.0 ,          0.0 ,-95.66691272191396   ,-204.39408780041262 ,-98.9990701758373   ,-399.0600051691935  , 61.84052449671595   ,133.02001654565947   ,107.11091398187646   ,-1.3158386892143258e-06 ,-7.757312782771595e-07  ,-3.478810133500571e-06  ,      0.0 ,      0.0 ,      0.0 ,1.1227049787388396e-06  ,-3.214274617528504e-06  ,      0.0 ,-2.0915696872397356e-06 ,2.258732655143745e-06  ,0.5544076947203717   ,0.06458319301937389     ,-1.0625414816181752e-06 ,-2.355170971745206e-08  ,2.591401886627092e-08  ,3.00731886363569       ,0.0 ,72.80272700218046     ,4.811985677365542       ,        0.0 ,        0.0 , 0.0
 0.0 ,0.0 ,           0.0 ,            0.0 ,            0.0 ,            0.0 ,              0.0 ,                   0.0 ,  19.0 ,15.38462 ,-11.30769 ,           0.0 ,           0.0 ,       0.0 ,73.43707       ,-18.6514    ,-0.0492413       ,-0.00434864      ,                 0.0 ,             0.0 ,             0.0 ,                 0.0 ,                 0.0 ,        0.0 ,2.9040964897264927     ,            0.0 ,            0.0 ,            0.0 ,              0.0 ,                   0.0 ,  0.0 ,0.0 , 341.4567951162664   ,1.0                ,0.0 ,-99.18873824171763  ,-208.80670365452238 ,-4.058455533534256      ,-103.50707451141534 ,          0.0 ,          0.0 ,-99.03809569568972  ,-208.95734487550135 ,-103.50707451141534 ,-411.50249453110496 , 62.221589585440405  ,137.16751276140192  ,107.77096377100978   ,-94.1998465875704     ,-203.8178121393816  ,-4.058455533534256      ,-98.51820708123992  ,          0.0 ,          0.0 ,-94.0492092245494    ,-203.96845336036057 ,-98.51820708123992  ,-396.53586891230464 , 62.221589585440405  ,132.17862124626114   ,107.77096377100978   ,5.504448745675532e-07   ,-1.7222927589485456e-06 ,-4.240827781886108e-06  ,      0.0 ,      0.0 ,      0.0 ,1.9887729887953455e-06  ,-3.16062078440339e-06   ,      0.0 ,-1.1718482741572681e-06 ,2.5990476447825895e-06 ,0.32024695441893425  ,0.03530105659363068     ,-4.923776755736946e-07  ,-1.1772432350387603e-08 ,3.7140923935110093e-07 ,44.692651965119765     ,0.0 ,31.751911532178955    ,2.36408196147068        ,        0.0 ,        0.0 , 0.0
 0.0 ,0.0 ,           0.0 ,            0.0 ,            0.0 ,            0.0 ,              0.0 ,                   0.0 ,  20.0 ,13.46154 ,-11.26923 ,           0.0 ,           0.0 ,       0.0 ,73.53586       ,-18.62282   ,-0.05174176      ,-0.004358707     ,                 0.0 ,             0.0 ,             0.0 ,                 0.0 ,                 0.0 ,        0.0 ,2.9554737352816245     ,            0.0 ,            0.0 ,            0.0 ,              0.0 ,                   0.0 ,  0.0 ,0.0 , 339.5971496139433   ,1.0                ,0.0 ,-98.22442299449983  ,-208.09855023103168 ,-3.9670982016481338     ,-103.05166680648212 ,          0.0 ,          0.0 ,-98.08017130717624  ,-208.24282256311793 ,-103.05166680648212 ,-409.37462462353574 , 62.22262074412558   ,136.45819084458577  ,107.77274195362273   ,-93.23545468337227    ,-203.10958556628702 ,-3.9670982016481338     ,-98.06271250507923  ,          0.0 ,          0.0 ,-93.09120781437778   ,-203.25385789837327 ,-98.06271250507923  ,-394.40773453578913 , 62.22262074412558   ,131.46927799654998   ,107.77274195362273   ,1.1736081398728633e-06  ,-2.219716884281231e-06  ,-3.771284480508352e-06  ,      0.0 ,      0.0 ,      0.0 ,2.045382868884028e-06   ,-3.0914911341901794e-06 ,      0.0 ,-1.046108744681437e-06  ,2.5866816446406373e-06 ,0.32262447276925266  ,0.03567109661772989     ,-5.094765645051923e-07  ,-1.1895830133884041e-08 ,3.5896890789176385e-07 ,44.80446544273735      ,0.0 ,32.084732769815275    ,2.3888620974159753      ,        0.0 ,        0.0 , 0.0
 0.0 ,0.0 ,           0.0 ,            0.0 ,            0.0 ,            0.0 ,              0.0 ,                   0.0 ,  21.0 ,11.53846 ,-11.23077 ,           0.0 ,           0.0 ,       0.0 ,73.51261       ,-18.58203   ,-0.05285087      ,-0.00404572      ,                 0.0 ,             0.0 ,             0.0 ,                 0.0 ,                 0.0 ,        0.0 ,2.0                    ,            0.0 ,            0.0 ,            0.0 ,              0.0 ,                   0.0 ,  0.0 ,0.0 , 341.85147027354543  ,1.0                ,0.0 ,-96.27554410274215  ,-207.69616544558897 ,-3.7989034316389008     ,-102.5111952791059  ,          0.0 ,          0.0 ,-96.14584327473804  ,-207.82588560558483 ,-102.5111952791059  ,-406.48289114658206 , 62.7392745324988    ,135.49426371552735  ,108.66762378638197   ,-91.28646227788651    ,-202.70705942406562 ,-3.7989034316389008     ,-97.52209910538707  ,          0.0 ,          0.0 ,-91.15675202492147   ,-202.83677958406147 ,-97.52209910538707  ,-391.51561868486186 , 62.7392745324988    ,130.50520693302659   ,108.66762378638197   ,1.2503821846518396e-06  ,-2.884284002592204e-06  ,-3.6067329733848547e-06 ,      0.0 ,      0.0 ,      0.0 ,2.0258332833807175e-06  ,-3.6597346300730345e-06 ,      0.0 ,-1.6339018179403644e-06 ,2.8892661012967688e-06 ,0.0655376143947577   ,-1.0455742918209537e-06 ,-6.666935095570799e-08  ,0.0                     ,1.0477163918379028e-06 ,77.26129672017989      ,0.0 ,0.0                   ,0.0                     ,        0.0 ,        0.0 , 0.0
 0.0 ,0.0 ,           0.0 ,            0.0 ,            0.0 ,            0.0 ,              0.0 ,                   0.0 ,  22.0 ,9.615385 ,-11.19231 ,           0.0 ,           0.0 ,       0.0 ,73.29598       ,-18.52191   ,-0.05273302      ,-0.004940338     ,                 0.0 ,             0.0 ,             0.0 ,                 0.0 ,                 0.0 ,        0.0 ,1.4947990438770777     ,            0.0 ,            0.0 ,            0.0 ,              0.0 ,                   0.0 ,  0.0 ,0.0 , 338.9850961090514   ,1.0                ,0.0 ,-95.41682186780714  ,-207.47428816129974 ,-3.442172067381611      ,-102.2616111380698  ,          0.0 ,          0.0 ,-95.30800332619005  ,-207.58310657798572 ,-102.2616111380698  ,-405.1527114379508  , 62.92256708303532   ,135.05087047931696  ,108.98510253316546   ,-90.42765513381929    ,-202.48514209325052 ,-3.442172067381611      ,-97.27243475796324  ,          0.0 ,          0.0 ,-90.31882694608352   ,-202.59396050993652 ,-97.27243475796324  ,-390.18522146439676 , 62.92256708303532   ,130.0617244112678    ,108.98510253316546   ,3.355097604049669e-06   ,-3.722462007409398e-06  ,-3.029996684930195e-06  ,      0.0 ,      0.0 ,      0.0 ,3.6681295184490204e-06  ,-4.035493439502815e-06  ,      0.0 ,-3.673644033597292e-07  ,3.900062746520734e-06  ,0.3245880507450324   ,0.028823488458553603    ,-2.2951565982374042e-07 ,-2.231810602634594e-08  ,7.080167660147258e-07  ,33.58422132450829      ,0.0 ,44.20110772923101     ,2.5218899188269903      ,        0.0 ,        0.0 , 0.0
 0.0 ,0.0 ,           0.0 ,            0.0 ,            0.0 ,            0.0 ,              0.0 ,                   0.0 ,  23.0 ,7.692308 ,-11.15385 ,           0.0 ,           0.0 ,       0.0 ,72.77554       ,-18.4314    ,-0.04995571      ,-0.00576715      ,                 0.0 ,             0.0 ,             0.0 ,                 0.0 ,                 0.0 ,        0.0 ,2.0064150646192207     ,            0.0 ,            0.0 ,            0.0 ,              0.0 ,                   0.0 ,  0.0 ,0.0 , 337.5191084544394   ,1.0                ,0.0 ,-93.60141646510841  ,-207.33734586615265 ,-2.78748297920166       ,-101.86390486822349 ,          0.0 ,          0.0 ,-93.53312704418894  ,-207.40563027619754 ,-101.86390486822349 ,-402.8026872864808  , 63.50083326045111   ,134.26752923683216  ,109.98667129057381   ,-88.61206537435464    ,-202.3480296786246  ,-2.78748297920166       ,-96.87455870354113  ,          0.0 ,          0.0 ,-88.5437759110336    ,-202.41631408866954 ,-96.87455870354113  ,-387.8346884086265  , 63.50083326045111   ,129.27821304930413   ,109.98667129057381   ,2.981550821893297e-06   ,-4.508618582215635e-06  ,-2.4622300285202976e-06 ,      0.0 ,      0.0 ,      0.0 ,3.1981220460192934e-06  ,-4.725189603362556e-06  ,      0.0 ,-1.527067760322339e-06  ,4.113432044061127e-06  ,0.32089484775619426  ,0.02846444587072826     ,-3.7133415535891164e-07 ,-2.2040304879639022e-08 ,9.827658462142554e-07  ,34.51044128863097      ,0.0 ,43.65092132907676     ,2.4904990870739856      ,        0.0 ,        0.0 , 0.0
 0.0 ,0.0 ,           0.0 ,            0.0 ,            0.0 ,            0.0 ,              0.0 ,                   0.0 ,  24.0 ,5.769231 ,-11.11538 ,           0.0 ,           0.0 ,       0.0 ,71.78629       ,-18.29401   ,-0.04536455      ,-0.005998147     ,                 0.0 ,             0.0 ,             0.0 ,                 0.0 ,                 0.0 ,        0.0 ,3.5153777690505894     ,            0.0 ,            0.0 ,            0.0 ,              0.0 ,                   0.0 ,  0.0 ,0.0 , 338.54001076079345  ,1.0                ,0.0 ,-93.0617843644927   ,-206.75325327655784 ,-2.3291226327900447     ,-101.54676133242778 ,          0.0 ,          0.0 ,-93.01209052076618  ,-206.80293214707302 ,-101.54676133242778 ,-401.36186394668965 , 63.397499523205866  ,133.7872718281555   ,109.80768618121255   ,-88.07234114522558    ,-201.7638248499357  ,-2.3291226327900447     ,-96.5573227788166   ,          0.0 ,          0.0 ,-88.0226471209327    ,-201.81350372045085 ,-96.5573227788166   ,-386.3935271290462  , 63.397499523205866  ,128.79784340153336   ,109.80768618121255   ,3.110508994716953e-06   ,-4.26763181892132e-06   ,-9.852839147620658e-07  ,      0.0 ,      0.0 ,      0.0 ,3.1472828750684764e-06  ,-4.3044049900461814e-06 ,      0.0 ,-1.157122824204366e-06  ,3.8848989264291505e-06 ,0.06446312929334594  ,-1.0978250046718229e-06 ,-2.5480663143778517e-07 ,0.0                     ,1.131004730354387e-06  ,78.56677309944476      ,0.0 ,0.0                   ,0.0                     ,        0.0 ,        0.0 , 0.0
 0.0 ,0.0 ,           0.0 ,            0.0 ,            0.0 ,            0.0 ,              0.0 ,                   0.0 ,  25.0 ,3.846154 ,-11.07692 ,           0.0 ,           0.0 ,       0.0 ,70.27803       ,-18.10473   ,-0.03511088      ,-0.006750949     ,                 0.0 ,             0.0 ,             0.0 ,                 0.0 ,                 0.0 ,        0.0 ,1.5571091423033072     ,            0.0 ,            0.0 ,            0.0 ,              0.0 ,                   0.0 ,  0.0 ,0.0 , 380.42081746089895  ,1.0                ,0.0 ,-95.22578740540396  ,-206.24055042207038 ,-1.6973062893031425     ,-101.79143325077308 ,          0.0 ,          0.0 ,-95.1969571034815   ,-206.2693703298124  ,-101.79143325077308 ,-403.25782969251253 , 62.32311578865993   ,134.41925231942213  ,107.94679390220844   ,-90.23882593129541    ,-201.25363254815102 ,-1.6973062893031425     ,-96.80447177666453  ,          0.0 ,          0.0 ,-90.20999562937295   ,-201.28245245589306 ,-96.80447177666453  ,-388.29695274680506 , 62.32311578865993   ,129.4323344455028    ,107.94679390220844   ,2.39825208306632e-06    ,-2.4293604737249646e-06 ,-5.953314570009197e-07  ,      0.0 ,      0.0 ,      0.0 ,2.4174511095856552e-06  ,-2.448559227586761e-06  ,      0.0 ,-3.1108390658644404e-08 ,2.455750223649779e-06  ,0.323139201421041    ,0.03165177149061079     ,1.0144844780772589e-05  ,-2.594985797528189e-06  ,8.469816135536233e-07  ,35.62799154014587      ,0.0 ,38.4859963522589      ,2.465440399241254       ,        0.0 ,        0.0 , 0.0
 0.0 ,0.0 ,           0.0 ,            0.0 ,            0.0 ,            0.0 ,              0.0 ,                   0.0 ,  26.0 ,1.923077 ,-11.03846 ,           0.0 ,           0.0 ,       0.0 ,68.54078       ,-17.89254   ,-0.02321315      ,-0.007250336     ,                 0.0 ,             0.0 ,             0.0 ,                 0.0 ,                 0.0 ,        0.0 ,2.432855842707505      ,            0.0 ,            0.0 ,            0.0 ,              0.0 ,                   0.0 ,  0.0 ,0.0 , 347.52268963468055  ,1.0                ,0.0 ,-94.81424350364776  ,-206.21794939192318 ,-0.9701208669578474     ,-101.7278274526848  ,          0.0 ,          0.0 ,-94.80501171441216  ,-206.22719102355632 ,-101.7278274526848  ,-402.7600949468993  , 62.44017818343914   ,134.2533721965638   ,108.14956093839402   ,-89.82667909573013    ,-201.23037849116793 ,-0.9701208669578474     ,-96.74026304476715  ,          0.0 ,          0.0 ,-89.81744730649451   ,-201.2396471295835  ,-96.74026304476715  ,-387.7973092514159  , 62.44017818343914   ,129.26577875273279   ,108.14956093839402   ,3.540655776179079e-06   ,-2.8073756117060335e-06 ,-1.0147925865086051e-07 ,      0.0 ,      0.0 ,      0.0 ,3.542002934667716e-06   ,-2.8087227701946703e-06 ,      0.0 ,7.332803899038033e-07   ,3.211280308006706e-06  ,0.4701706766722058   ,0.04594557920869302     ,5.541482795314508e-06   ,-1.5653212979495533e-06 ,5.850938085932462e-07  ,11.285263720513212     ,0.0 ,65.40221029442489     ,3.86600179889125        ,        0.0 ,        0.0 , 0.0
 0.0 ,0.0 ,           0.0 ,            0.0 ,            0.0 ,            0.0 ,              0.0 ,                   0.0 ,  27.0 ,0.0      ,-11.0     ,           0.0 ,           0.0 ,       0.0 ,68.67836       ,-17.86784   ,158.3345         ,-0.003860803     ,                 0.0 ,             0.0 ,             0.0 ,                 0.0 ,                 0.0 ,        0.0 ,0.0                    ,            0.0 ,            0.0 ,            0.0 ,              0.0 ,                   0.0 ,  0.0 ,0.0 ,  63.0526890076239   ,-19.13493555082592 ,0.0 ,-150.20647096360102 ,-301.8961131095082  ,-0.9660051654729485     ,-150.84806452398357 ,          0.0 ,          0.0 ,-149.69559048054901 ,-302.40699445125637 ,-150.84806452398357 ,-602.9506491411203  , 87.8937275420447    ,200.98354996185654  ,152.23640201469016   ,-195.62452991762592   ,-347.3141746533202  ,-0.9660051654729485     ,-196.26612436533654 ,          0.0 ,          0.0 ,-195.1136501735405   ,-347.8250543585413  ,-196.26612436533654 ,-739.204823850142   , 87.8937275420447    ,246.4016094143192    ,152.23640201469016   ,-2.1993138581648397e-07 ,-1.3757231431372854e-05 ,-8.025748206091332e-07  ,      0.0 ,      0.0 ,      0.0 ,9.084547298373262e-07   ,-1.488561759416882e-05  ,      0.0 ,-1.397716300294931e-05  ,9.053272662137981e-06  ,0.5732550085034905   ,0.2946648442233249      ,-0.005997995722761869   ,-0.0033391805167947105  ,0.006388475128528773   ,-3.1676430553497203    ,0.0 ,-3.973368943820623    ,-23.19387943808092      ,        0.0 ,        0.0 , 0.0
 0.0 ,0.0 ,           0.0 ,            0.0 ,            0.0 ,            0.0 ,              0.0 ,                   0.0 ,  28.0 ,0.0      ,-13.0     ,           0.0 ,           0.0 ,       0.0 ,44.6268        ,-17.46268   ,195.0752         ,0.001428799      ,                 0.0 ,             0.0 ,             0.0 ,                 0.0 ,                 0.0 ,        0.0 ,0.0                    ,            0.0 ,            0.0 ,            0.0 ,              0.0 ,                   0.0 ,  0.0 ,0.0 ,  63.0526890076239   ,-19.13493555082592 ,0.0 ,-150.20647096360102 ,-301.8961131095082  ,-0.9660051654729485     ,-150.84806452398357 ,          0.0 ,          0.0 ,-149.69559048054901 ,-302.40699445125637 ,-150.84806452398357 ,-602.9506491411203  , 87.8937275420447    ,200.98354996185654  ,152.23640201469016   ,-195.62452991762592   ,-347.3141746533202  ,-0.9660051654729485     ,-196.26612436533654 ,          0.0 ,          0.0 ,-195.1136501735405   ,-347.8250543585413  ,-196.26612436533654 ,-739.204823850142   , 87.8937275420447    ,246.4016094143192    ,152.23640201469016   ,-2.1993138581648397e-07 ,-1.3757231431372854e-05 ,-8.025748206091332e-07  ,      0.0 ,      0.0 ,      0.0 ,9.084547298373262e-07   ,-1.488561759416882e-05  ,      0.0 ,-1.397716300294931e-05  ,9.053272662137981e-06  ,0.5732550085034905   ,0.2946648442233249      ,-0.005997995722761869   ,-0.0033391805167947105  ,0.006388475128528773   ,-3.1676430553497203    ,0.0 ,-3.973368943820623    ,-23.19387943808092      ,        0.0 ,        0.0 , 0.0
 0.0 ,0.0 ,           0.0 ,            0.0 ,            0.0 ,            0.0 ,              0.0 ,                   0.0 ,  29.0 ,0.0      ,-15.0     ,           0.0 ,           0.0 ,       0.0 ,29.58433       ,-17.95843   ,235.3761         ,0.002065959      ,                 0.0 ,             0.0 ,             0.0 ,                 0.0 ,                 0.0 ,        0.0 ,0.0                    ,            0.0 ,            0.0 ,            0.0 ,              0.0 ,                   0.0 ,  0.0 ,0.0 ,  63.0526890076239   ,-19.13493555082592 ,0.0 ,-150.20647096360102 ,-301.8961131095082  ,-0.9660051654729485     ,-150.84806452398357 ,          0.0 ,          0.0 ,-149.69559048054901 ,-302.40699445125637 ,-150.84806452398357 ,-602.9506491411203  , 87.8937275420447    ,200.98354996185654  ,152.23640201469016   ,-195.62452991762592   ,-347.3141746533202  ,-0.9660051654729485     ,-196.26612436533654 ,          0.0 ,          0.0 ,-195.1136501735405   ,-347.8250543585413  ,-196.26612436533654 ,-739.204823850142   , 87.8937275420447    ,246.4016094143192    ,152.23640201469016   ,-2.1993138581648397e-07 ,-1.3757231431372854e-05 ,-8.025748206091332e-07  ,      0.0 ,      0.0 ,      0.0 ,9.084547298373262e-07   ,-1.488561759416882e-05  ,      0.0 ,-1.397716300294931e-05  ,9.053272662137981e-06  ,0.5732550085034905   ,0.2946648442233249      ,-0.005997995722761869   ,-0.0033391805167947105  ,0.006388475128528773   ,-3.1676430553497203    ,0.0 ,-3.973368943820623    ,-23.19387943808092      ,        0.0 ,        0.0 , 0.0
 0.0 ,0.0 ,           0.0 ,            0.0 ,            0.0 ,            0.0 ,              0.0 ,                   0.0 ,  30.0 ,0.0      ,-17.0     ,           0.0 ,           0.0 ,       0.0 ,14.26555       ,-18.42656   ,278.4366         ,0.002351823      ,                 0.0 ,             0.0 ,             0.0 ,                 0.0 ,                 0.0 ,        0.0 ,0.0                    ,            0.0 ,            0.0 ,            0.0 ,              0.0 ,                   0.0 ,  0.0 ,0.0 ,  63.0526890076239   ,-19.13493555082592 ,0.0 ,-150.20647096360102 ,-301.8961131095082  ,-0.9660051654729485     ,-150.84806452398357 ,          0.0 ,          0.0 ,-149.69559048054901 ,-302.40699445125637 ,-150.84806452398357 ,-602.9506491411203  , 87.8937275420447    ,200.98354996185654  ,152.23640201469016   ,-195.62452991762592   ,-347.3141746533202  ,-0.9660051654729485     ,-196.26612436533654 ,          0.0 ,          0.0 ,-195.1136501735405   ,-347.8250543585413  ,-196.26612436533654 ,-739.204823850142   , 87.8937275420447    ,246.4016094143192    ,152.23640201469016   ,-2.1993138581648397e-07 ,-1.3757231431372854e-05 ,-8.025748206091332e-07  ,      0.0 ,      0.0 ,      0.0 ,9.084547298373262e-07   ,-1.488561759416882e-05  ,      0.0 ,-1.397716300294931e-05  ,9.053272662137981e-06  ,0.5732550085034905   ,0.2946648442233249      ,-0.005997995722761869   ,-0.0033391805167947105  ,0.006388475128528773   ,-3.1676430553497203    ,0.0 ,-3.973368943820623    ,-23.19387943808092      ,        0.0 ,        0.0 , 0.0
 0.0 ,0.0 ,           0.0 ,            0.0 ,            0.0 ,            0.0 ,              0.0 ,                   0.0 ,  31.0 ,0.0      ,-19.0     ,           0.0 ,           0.0 ,       0.0 ,-1.618969e-05  ,-19.0       ,336.9211         ,0.002752809      ,                 0.0 ,             0.0 ,             0.0 ,                 0.0 ,                 0.0 ,        0.0 ,0.0                    ,            0.0 ,            0.0 ,            0.0 ,              0.0 ,                   0.0 ,  0.0 ,0.0 ,  63.0526890076239   ,-19.13493555082592 ,0.0 ,-150.20647096360102 ,-301.8961131095082  ,-0.9660051654729485     ,-150.84806452398357 ,          0.0 ,          0.0 ,-149.69559048054901 ,-302.40699445125637 ,-150.84806452398357 ,-602.9506491411203  , 87.8937275420447    ,200.98354996185654  ,152.23640201469016   ,-195.62452991762592   ,-347.3141746533202  ,-0.9660051654729485     ,-196.26612436533654 ,          0.0 ,          0.0 ,-195.1136501735405   ,-347.8250543585413  ,-196.26612436533654 ,-739.204823850142   , 87.8937275420447    ,246.4016094143192    ,152.23640201469016   ,-2.1993138581648397e-07 ,-1.3757231431372854e-05 ,-8.025748206091332e-07  ,      0.0 ,      0.0 ,      0.0 ,9.084547298373262e-07   ,-1.488561759416882e-05  ,      0.0 ,-1.397716300294931e-05  ,9.053272662137981e-06  ,0.5732550085034905   ,0.2946648442233249      ,-0.005997995722761869   ,-0.0033391805167947105  ,0.006388475128528773   ,-3.1676430553497203    ,0.0 ,-3.973368943820623    ,-23.19387943808092      ,        0.0 ,        0.0 , 0.0
 0.0 ,0.0 ,           0.0 ,            0.0 ,            0.0 ,            0.0 ,              0.0 ,                   0.0 ,  32.0 ,0.0      ,-21.0     ,           0.0 ,           0.0 ,       0.0 ,-20.00001      ,-19.0       ,432.2324         ,0.003103275      ,                 0.0 ,             0.0 ,             0.0 ,                 0.0 ,                 0.0 ,        0.0 ,0.0                    ,            0.0 ,            0.0 ,            0.0 ,              0.0 ,                   0.0 ,  0.0 ,0.0 ,  63.0526890076239   ,-19.13493555082592 ,0.0 ,-150.20647096360102 ,-301.8961131095082  ,-0.9660051654729485     ,-150.84806452398357 ,          0.0 ,          0.0 ,-149.69559048054901 ,-302.40699445125637 ,-150.84806452398357 ,-602.9506491411203  , 87.8937275420447    ,200.98354996185654  ,152.23640201469016   ,-195.62452991762592   ,-347.3141746533202  ,-0.9660051654729485     ,-196.26612436533654 ,          0.0 ,          0.0 ,-195.1136501735405   ,-347.8250543585413  ,-196.26612436533654 ,-739.204823850142   , 87.8937275420447    ,246.4016094143192    ,152.23640201469016   ,-2.1993138581648397e-07 ,-1.3757231431372854e-05 ,-8.025748206091332e-07  ,      0.0 ,      0.0 ,      0.0 ,9.084547298373262e-07   ,-1.488561759416882e-05  ,      0.0 ,-1.397716300294931e-05  ,9.053272662137981e-06  ,0.5732550085034905   ,0.2946648442233249      ,-0.005997995722761869   ,-0.0033391805167947105  ,0.006388475128528773   ,-3.1676430553497203    ,0.0 ,-3.973368943820623    ,-23.19387943808092      ,        0.0 ,        0.0 , 0.0
 0.0 ,0.0 ,           0.0 ,            0.0 ,            0.0 ,            0.0 ,              0.0 ,                   0.0 ,  33.0 ,0.0      ,-23.0     ,           0.0 ,           0.0 ,       0.0 ,-40.0          ,-19.0       ,538.2186         ,0.00374625       ,                 0.0 ,             0.0 ,             0.0 ,                 0.0 ,                 0.0 ,        0.0 ,0.0                    ,            0.0 ,            0.0 ,            0.0 ,              0.0 ,                   0.0 ,  0.0 ,0.0 ,  63.0526890076239   ,-19.13493555082592 ,0.0 ,-150.20647096360102 ,-301.8961131095082  ,-0.9660051654729485     ,-150.84806452398357 ,          0.0 ,          0.0 ,-149.69559048054901 ,-302.40699445125637 ,-150.84806452398357 ,-602.9506491411203  , 87.8937275420447    ,200.98354996185654  ,152.23640201469016   ,-195.62452991762592   ,-347.3141746533202  ,-0.9660051654729485     ,-196.26612436533654 ,          0.0 ,          0.0 ,-195.1136501735405   ,-347.8250543585413  ,-196.26612436533654 ,-739.204823850142   , 87.8937275420447    ,246.4016094143192    ,152.23640201469016   ,-2.1993138581648397e-07 ,-1.3757231431372854e-05 ,-8.025748206091332e-07  ,      0.0 ,      0.0 ,      0.0 ,9.084547298373262e-07   ,-1.488561759416882e-05  ,      0.0 ,-1.397716300294931e-05  ,9.053272662137981e-06  ,0.5732550085034905   ,0.2946648442233249      ,-0.005997995722761869   ,-0.0033391805167947105  ,0.006388475128528773   ,-3.1676430553497203    ,0.0 ,-3.973368943820623    ,-23.19387943808092      ,        0.0 ,        0.0 , 0.0
 0.0 ,0.0 ,           0.0 ,            0.0 ,            0.0 ,            0.0 ,              0.0 ,                   0.0 ,  34.0 ,0.0      ,-25.0     ,           0.0 ,           0.0 ,       0.0 ,-60.0          ,-19.0       ,645.8127         ,0.001275269      ,                 0.0 ,             0.0 ,             0.0 ,                 0.0 ,                 0.0 ,        0.0 ,0.0                    ,            0.0 ,            0.0 ,            0.0 ,              0.0 ,                   0.0 ,  0.0 ,0.0 ,  63.0526890076239   ,-19.13493555082592 ,0.0 ,-150.20647096360102 ,-301.8961131095082  ,-0.9660051654729485     ,-150.84806452398357 ,          0.0 ,          0.0 ,-149.69559048054901 ,-302.40699445125637 ,-150.84806452398357 ,-602.9506491411203  , 87.8937275420447    ,200.98354996185654  ,152.23640201469016   ,-195.62452991762592   ,-347.3141746533202  ,-0.9660051654729485     ,-196.26612436533654 ,          0.0 ,          0.0 ,-195.1136501735405   ,-347.8250543585413  ,-196.26612436533654 ,-739.204823850142   , 87.8937275420447    ,246.4016094143192    ,152.23640201469016   ,-2.1993138581648397e-07 ,-1.3757231431372854e-05 ,-8.025748206091332e-07  ,      0.0 ,      0.0 ,      0.0 ,9.084547298373262e-07   ,-1.488561759416882e-05  ,      0.0 ,-1.397716300294931e-05  ,9.053272662137981e-06  ,0.5732550085034905   ,0.2946648442233249      ,-0.005997995722761869   ,-0.0033391805167947105  ,0.006388475128528773   ,-3.1676430553497203    ,0.0 ,-3.973368943820623    ,-23.19387943808092      ,        0.0 ,        0.0 , 0.0
 0.0 ,0.0 ,           0.0 ,            0.0 ,            0.0 ,            0.0 ,              0.0 ,                   0.0 ,  35.0 ,0.0      ,-27.0     ,           0.0 ,           0.0 ,       0.0 ,-80.0          ,-19.0       ,757.6435         ,0.002160622      ,                 0.0 ,             0.0 ,             0.0 ,                 0.0 ,                 0.0 ,        0.0 ,0.0                    ,            0.0 ,            0.0 ,            0.0 ,              0.0 ,                   0.0 ,  0.0 ,0.0 ,  63.0526890076239   ,-19.13493555082592 ,0.0 ,-150.20647096360102 ,-301.8961131095082  ,-0.9660051654729485     ,-150.84806452398357 ,          0.0 ,          0.0 ,-149.69559048054901 ,-302.40699445125637 ,-150.84806452398357 ,-602.9506491411203  , 87.8937275420447    ,200.98354996185654  ,152.23640201469016   ,-195.62452991762592   ,-347.3141746533202  ,-0.9660051654729485     ,-196.26612436533654 ,          0.0 ,          0.0 ,-195.1136501735405   ,-347.8250543585413  ,-196.26612436533654 ,-739.204823850142   , 87.8937275420447    ,246.4016094143192    ,152.23640201469016   ,-2.1993138581648397e-07 ,-1.3757231431372854e-05 ,-8.025748206091332e-07  ,      0.0 ,      0.0 ,      0.0 ,9.084547298373262e-07   ,-1.488561759416882e-05  ,      0.0 ,-1.397716300294931e-05  ,9.053272662137981e-06  ,0.5732550085034905   ,0.2946648442233249      ,-0.005997995722761869   ,-0.0033391805167947105  ,0.006388475128528773   ,-3.1676430553497203    ,0.0 ,-3.973368943820623    ,-23.19387943808092      ,        0.0 ,        0.0 , 0.0
 0.0 ,0.0 ,           0.0 ,            0.0 ,            0.0 ,            0.0 ,              0.0 ,                   0.0 ,  36.0 ,0.0      ,-29.0     ,           0.0 ,           0.0 ,       0.0 ,-100.0         ,-19.0       ,837.0284         ,-0.00410408      ,                 0.0 ,             0.0 ,             0.0 ,                 0.0 ,                 0.0 ,        0.0 ,0.0                    ,            0.0 ,            0.0 ,            0.0 ,              0.0 ,                   0.0 ,  0.0 ,0.0 ,  63.0526890076239   ,-19.13493555082592 ,0.0 ,-150.20647096360102 ,-301.8961131095082  ,-0.9660051654729485     ,-150.84806452398357 ,          0.0 ,          0.0 ,-149.69559048054901 ,-302.40699445125637 ,-150.84806452398357 ,-602.9506491411203  , 87.8937275420447    ,200.98354996185654  ,152.23640201469016   ,-195.62452991762592   ,-347.3141746533202  ,-0.9660051654729485     ,-196.26612436533654 ,          0.0 ,          0.0 ,-195.1136501735405   ,-347.8250543585413  ,-196.26612436533654 ,-739.204823850142   , 87.8937275420447    ,246.4016094143192    ,152.23640201469016   ,-2.1993138581648397e-07 ,-1.3757231431372854e-05 ,-8.025748206091332e-07  ,      0.0 ,      0.0 ,      0.0 ,9.084547298373262e-07   ,-1.488561759416882e-05  ,      0.0 ,-1.397716300294931e-05  ,9.053272662137981e-06  ,0.5732550085034905   ,0.2946648442233249      ,-0.005997995722761869   ,-0.0033391805167947105  ,0.006388475128528773   ,-3.1676430553497203    ,0.0 ,-3.973368943820623    ,-23.19387943808092      ,        0.0 ,        0.0 , 0.0
 0.0 ,0.0 ,           0.0 ,            0.0 ,            0.0 ,            0.0 ,              0.0 ,                   0.0 ,  37.0 ,1.923077 ,-28.69231 ,           0.0 ,           0.0 ,       0.0 ,-97.35917      ,-18.95639   ,0.03553655       ,-0.005362881     ,                 0.0 ,             0.0 ,             0.0 ,                 0.0 ,                 0.0 ,        0.0 ,0.49692230064574267    ,            0.0 ,            0.0 ,            0.0 ,              0.0 ,                   0.0 ,  0.0 ,0.0 , 416.963645561339    ,1.0                ,0.0 ,-226.5799887914652  ,-444.626934197657   ,-2.2434913021698466     ,-224.6618891630041  ,          0.0 ,          0.0 ,-226.51412214072806 ,-444.69285054062425 ,-224.6618891630041  ,-895.8688121521263  ,126.50552723645409   ,298.62297071737544  ,219.1140180977915    ,-323.6541831472462    ,-541.7011291124885  ,-2.2434913021698466     ,-321.7360823441947  ,          0.0 ,          0.0 ,-323.5883153219187   ,-541.7669957632255  ,-321.7360823441947  ,-1187.0913431780584 ,126.50552723645409   ,395.69711476538646   ,219.1140180977915    ,1.952104596633729e-06   ,-1.8864387992148973e-05 ,-4.499476889511699e-06  ,      0.0 ,      0.0 ,      0.0 ,2.1924693919121793e-06  ,-1.9104754278194325e-05 ,      0.0 ,-1.6912283395515242e-05 ,1.1714451284645744e-05 ,0.8165923394371047   ,0.48456059134458873     ,-0.0022025055528590845  ,1.0548756044121943e-07  ,0.012412768454706229   ,-44.89848116386452     ,0.0 ,-52.174605417450074   ,-52.174605417450074     ,        0.0 ,        0.0 , 0.0
 0.0 ,0.0 ,           0.0 ,            0.0 ,            0.0 ,            0.0 ,              0.0 ,                   0.0 ,  38.0 ,3.846154 ,-28.38462 ,           0.0 ,           0.0 ,       0.0 ,-94.71194      ,-18.91342   ,0.09034745       ,-0.004569069     ,                 0.0 ,             0.0 ,             0.0 ,                 0.0 ,                 0.0 ,        0.0 ,1.4906340671589533     ,            0.0 ,            0.0 ,            0.0 ,              0.0 ,                   0.0 ,  0.0 ,0.0 , 407.5696740250684   ,1.0                ,0.0 ,-220.84396560366065 ,-431.55778372926386 ,-3.3968521771504143     ,-218.13734178282164 ,          0.0 ,          0.0 ,-220.7814263917818  ,-431.62027327012305 ,-218.13734178282164 ,-870.5390911157461  ,122.50396608782751   ,290.17971381071317  ,212.1830971233304    ,-315.1862490244808    ,-525.9001174664775  ,-3.3968521771504143     ,-312.47967488724834 ,          0.0 ,          0.0 ,-315.12380980001495  ,-525.9625566909431  ,-312.47967488724834 ,-1153.565943846419  ,122.50396608782751   ,384.5219972315333    ,212.1830971233304    ,-7.58654143470498e-08   ,-1.8418079365384963e-05 ,-3.4311244976735766e-06 ,      0.0 ,      0.0 ,      0.0 ,8.321391378980868e-08   ,-1.8577162569220742e-05 ,      0.0 ,-1.849394860536972e-05  ,1.0749640653206746e-05 ,0.6104913339330966   ,1.0                     ,-0.014630178658937164   ,-0.003322385367761908   ,0.0                    ,0.015089033834818386   ,0.0 ,-94.3423035423427     ,-94.3423035423427       ,        0.0 ,        0.0 , 0.0
 0.0 ,0.0 ,           0.0 ,            0.0 ,            0.0 ,            0.0 ,              0.0 ,                   0.0 ,  39.0 ,5.769231 ,-28.07692 ,           0.0 ,           0.0 ,       0.0 ,-92.03081      ,-18.87384   ,0.0792419        ,-0.003752224     ,                 0.0 ,             0.0 ,             0.0 ,                 0.0 ,                 0.0 ,        0.0 ,1.5188879751640765     ,            0.0 ,            0.0 ,            0.0 ,              0.0 ,                   0.0 ,  0.0 ,0.0 , 398.64125185043866  ,1.0                ,0.0 ,-216.15743386676263 ,-425.39042713865433 ,-4.433527965169008      ,-214.6086061700386  ,          0.0 ,          0.0 ,-216.06070951616266 ,-425.4871525937822  ,-214.6086061700386  ,-856.1564682799834  ,121.33554965412296   ,285.3854732349232   ,210.1593895258659    ,-307.1021140341768    ,-516.3350569858102  ,-4.433527965169008      ,-305.55318744198064 ,          0.0 ,          0.0 ,-307.00538857904894  ,-516.4317813364103  ,-305.55318744198064 ,-1128.990350089756  ,121.33554965412296   ,376.3301019775513    ,210.1593895258659    ,-2.2237039469804409e-07 ,-2.8201199709945802e-05 ,-5.700515153273096e-06  ,      0.0 ,      0.0 ,      0.0 ,6.99874649731332e-08    ,-2.849355284679892e-05  ,      0.0 ,-2.8423564567072422e-05 ,1.647665859409607e-05  ,0.6153415415563238   ,0.9889269657271283      ,-0.0028813764115299227  ,-2.487413154724583e-06  ,2.7755581859226183e-05 ,-0.8811521342764582    ,0.0 ,-90.06060092986993    ,-90.06060092986993      ,        0.0 ,        0.0 , 0.0
 0.0 ,0.0 ,           0.0 ,            0.0 ,            0.0 ,            0.0 ,              0.0 ,                   0.0 ,  40.0 ,7.692308 ,-27.76923 ,           0.0 ,           0.0 ,       0.0 ,-89.29588      ,-18.83964   ,0.07679081       ,-0.002926116     ,                 0.0 ,             0.0 ,             0.0 ,                 0.0 ,                 0.0 ,        0.0 ,3.9574415436970445     ,            0.0 ,            0.0 ,            0.0 ,              0.0 ,                   0.0 ,  0.0 ,0.0 , 390.19167375854886  ,0.9999999999999999 ,0.0 ,-212.78069234175751 ,-419.32552354038245 ,-5.703862912622707      ,-211.30204567589624 ,          0.0 ,          0.0 ,-212.6209145038081  ,-419.4853517415655  ,-211.30204567589624 ,-843.4082644124264  ,119.8174648988211    ,281.13607301050183  ,207.52993294690395   ,-300.66873643641964   ,-507.21356763504457 ,-5.703862912622707      ,-299.1900897705583  ,          0.0 ,          0.0 ,-300.50890823523656  ,-507.373345472994   ,-299.1900897705583  ,-1107.0719945170108 ,119.8174648988211    ,369.0241121228511    ,207.52993294690395   ,-1.8489641947574145e-06 ,-2.9961997181770384e-05 ,-6.932090710112626e-06  ,      0.0 ,      0.0 ,      0.0 ,-1.4271548085812487e-06 ,-3.0383803050299663e-05 ,      0.0 ,-3.181095907218798e-05  ,1.7155287546553734e-05 ,0.9913244501709513   ,0.018821124558789502    ,-8.628444372921746e-05  ,-1.6183880795918507e-07 ,0.0024581168767783745  ,-86.2445093727591      ,0.0 ,-1.6434154309899298   ,-1.6434154309899298     ,        0.0 ,        0.0 , 0.0
 0.0 ,0.0 ,           0.0 ,            0.0 ,            0.0 ,            0.0 ,              0.0 ,                   0.0 ,  41.0 ,9.615385 ,-27.46154 ,           0.0 ,           0.0 ,       0.0 ,-86.49889      ,-18.81165   ,0.07187359       ,-0.002216873     ,                 0.0 ,             0.0 ,             0.0 ,                 0.0 ,                 0.0 ,        0.0 ,2.0                    ,            0.0 ,            0.0 ,            0.0 ,              0.0 ,                   0.0 ,  0.0 ,0.0 , 382.8437341035725   ,1.0                ,0.0 ,-209.72847923171022 ,-413.6890916830268  ,-6.587593603505589      ,-208.3007422571496  ,          0.0 ,          0.0 ,-209.5137658036018  ,-413.90380511113517 ,-208.3007422571496  ,-831.7183131718866  ,118.35764043642774   ,277.23945357151155  ,205.00142074522265   ,-294.698481120356     ,-498.65909357167254 ,-6.587593603505589      ,-293.27074708641555 ,          0.0 ,          0.0 ,-294.4837676922476   ,-498.873806999781   ,-293.27074708641555 ,-1086.628189905433  ,118.35764043642774   ,362.20940791750934   ,205.00142074522265   ,-3.3509871905505715e-06 ,-2.9411394621553188e-05 ,-7.1787048142580175e-06 ,      0.0 ,      0.0 ,      0.0 ,-2.8511562512441523e-06 ,-2.9911222222798775e-05 ,      0.0 ,-3.276238427786488e-05  ,1.6550799714461227e-05 ,0.7821962813803901   ,0.5325243144542755      ,-0.0019697144586838726  ,-4.0478641240044475e-06 ,0.0017145691437794447  ,-43.79499916618814     ,0.0 ,-41.17302581592782    ,-41.17302581592782      ,        0.0 ,        0.0 , 0.0
 0.0 ,0.0 ,           0.0 ,            0.0 ,            0.0 ,            0.0 ,              0.0 ,                   0.0 ,  42.0 ,11.53846 ,-27.15385 ,           0.0 ,           0.0 ,       0.0 ,-83.64221      ,-18.78963   ,0.06785071       ,-0.001484443     ,                 0.0 ,             0.0 ,             0.0 ,                 0.0 ,                 0.0 ,        0.0 ,0.9921202918757807     ,            0.0 ,            0.0 ,            0.0 ,              0.0 ,                   0.0 ,  0.0 ,0.0 , 383.96913259194     ,1.0                ,0.0 ,-206.02750082794645 ,-407.9310029788422  ,-6.976249242497413      ,-205.11385757613675 ,          0.0 ,          0.0 ,-205.78090561743647 ,-408.1775981893521  ,-205.11385757613675 ,-819.0723613829255  ,117.04723912976696   ,273.0241026579147   ,202.73168147551763   ,-288.91075692141123   ,-490.8142086783215  ,-6.976249242497413      ,-287.997066290812   ,          0.0 ,          0.0 ,-288.6641617109012   ,-491.060854282817   ,-287.997066290812   ,-1067.7217995877345 ,117.04723912976696   ,355.9073617665753    ,202.73168147551763   ,-1.5271517862371984e-06 ,-2.200624148056945e-05  ,-5.150986606357837e-06  ,      0.0 ,      0.0 ,      0.0 ,-1.2057576986225265e-06 ,-2.2327634756975577e-05 ,      0.0 ,-2.3533394724835127e-05 ,1.256169680740317e-05  ,0.9877128658987389   ,0.0251657504061225      ,-0.005563483730651525   ,-2.1365207333522328e-07 ,0.008071495414652545   ,-80.64343211890586     ,0.0 ,-2.239703448585553    ,-2.239703448585553      ,        0.0 ,        0.0 , 0.0
 0.0 ,0.0 ,           0.0 ,            0.0 ,            0.0 ,            0.0 ,              0.0 ,                   0.0 ,  43.0 ,13.46154 ,-26.84615 ,           0.0 ,           0.0 ,       0.0 ,-80.73465      ,-18.77269   ,0.06449343       ,-0.0010595       ,                 0.0 ,             0.0 ,             0.0 ,                 0.0 ,                 0.0 ,        0.0 ,0.5197769985982384     ,            0.0 ,            0.0 ,            0.0 ,              0.0 ,                   0.0 ,  0.0 ,0.0 , 380.38925855067083  ,1.0                ,0.0 ,-203.6425391733319  ,-403.6945928302635  ,-7.41030534289733       ,-202.74571648098816 ,          0.0 ,          0.0 ,-203.3664961988848  ,-403.97063293995    ,-202.74571648098816 ,-810.0828484845836  ,115.99884156136608   ,270.027615570154    ,200.9158399035534    ,-283.42642847903375   ,-483.4784803618438  ,-7.41030534289733       ,-282.5296011478078  ,          0.0 ,          0.0 ,-283.1504346175259   ,-483.7545251104125  ,-282.5296011478078  ,-1049.434313944085  ,115.99884156136608   ,349.8115048758558    ,200.9158399035534    ,-1.6941996308434972e-06 ,-2.3929472086498078e-05 ,-5.862918190723937e-06  ,      0.0 ,      0.0 ,      0.0 ,-1.312243009752244e-06  ,-2.431143101999826e-05  ,      0.0 ,-2.5623671831932e-05    ,1.3678559513589902e-05 ,0.8179248316148315   ,0.48782628723491844     ,-0.006613097822712656   ,1.9943187652297546e-06  ,0.006418578345727214   ,-37.19202422245742     ,0.0 ,-42.590765553187715   ,-42.590765553187715     ,        0.0 ,        0.0 , 0.0
 0.0 ,0.0 ,           0.0 ,            0.0 ,            0.0 ,            0.0 ,              0.0 ,                   0.0 ,  44.0 ,15.38462 ,-26.53846 ,           0.0 ,           0.0 ,       0.0 ,-77.78708      ,-18.75975   ,0.0622362        ,-0.0007927034    ,                 0.0 ,             0.0 ,             0.0 ,                 0.0 ,                 0.0 ,        0.0 ,2.035366227321157      ,            0.0 ,            0.0 ,            0.0 ,              0.0 ,                   0.0 ,  0.0 ,0.0 , 382.58054424237696  ,1.0                ,0.0 ,-202.1053719817296  ,-400.92324846205224 ,-7.67471531580442       ,-201.26223390287498 ,          0.0 ,          0.0 ,-201.80537933279848 ,-401.2232374438537  ,-201.26223390287498 ,-804.2908543466567  ,115.29129345499965   ,268.0969847822189   ,199.69044503553215   ,-278.12256716452464   ,-476.9404937101008  ,-7.67471531580442       ,-277.2795254185404  ,          0.0 ,          0.0 ,-277.822624580847    ,-477.24043629377843 ,-277.2795254185404  ,-1032.3425435621716 ,115.29129345499965   ,344.11417996501405   ,199.69044503553215   ,-4.477132602603012e-06  ,-3.143650356561672e-05  ,-7.768514526867228e-06  ,      0.0 ,      0.0 ,      0.0 ,-3.909929313113329e-06  ,-3.200371217109738e-05  ,      0.0 ,-3.591364030968464e-05  ,1.7593793575010104e-05 ,0.6107811791981304   ,1.0                     ,-0.004010608285104407   ,-1.6086448552102784e-06 ,0.0                    ,0.004010612675743052   ,0.0 ,-76.01724128945935    ,-76.01724128945935      ,        0.0 ,        0.0 , 0.0
 0.0 ,0.0 ,           0.0 ,            0.0 ,            0.0 ,            0.0 ,              0.0 ,                   0.0 ,  45.0 ,17.30769 ,-26.23077 ,           0.0 ,           0.0 ,       0.0 ,-74.8091       ,-18.74986   ,0.05867352       ,-0.001011626     ,                 0.0 ,             0.0 ,             0.0 ,                 0.0 ,                 0.0 ,        0.0 ,3.0080211297542885     ,            0.0 ,            0.0 ,            0.0 ,              0.0 ,                   0.0 ,  0.0 ,0.0 , 389.53284582144215  ,1.0                ,0.0 ,-200.10454193048542 ,-397.30029562571525 ,-7.73814088888614       ,-199.2194398769544  ,          0.0 ,          0.0 ,-199.79842041435376 ,-397.6064171418469  ,-199.2194398769544  ,-796.624277433155   ,114.37215789984961   ,265.54144307901555  ,198.0984716711909    ,-273.4039415192792    ,-470.599695214509   ,-7.73814088888614       ,-272.51884387564445 ,          0.0 ,          0.0 ,-273.0978200031475   ,-470.9057693366454  ,-272.51884387564445 ,-1016.5222902313383 ,114.37215789984961   ,338.84084266780934   ,198.0984716711909    ,-4.837439110822794e-06  ,-2.8513116232829432e-05 ,-5.34448583842362e-06   ,      0.0 ,      0.0 ,      0.0 ,-4.4961858665416534e-06 ,-2.8854372143488634e-05 ,      0.0 ,-3.335055854810478e-05  ,1.5628112313138804e-05 ,0.6114353873363746   ,1.0                     ,-0.005719659457483901   ,-6.230860086177131e-06  ,0.0                    ,0.005719662991565077   ,0.0 ,-73.29940601194052    ,-73.29940601194052      ,        0.0 ,        0.0 , 0.0
 0.0 ,0.0 ,           0.0 ,            0.0 ,            0.0 ,            0.0 ,              0.0 ,                   0.0 ,  46.0 ,19.23077 ,-25.92308 ,           0.0 ,           0.0 ,       0.0 ,-71.80904      ,-18.74217   ,0.05421139       ,-0.001181695     ,                 0.0 ,             0.0 ,             0.0 ,                 0.0 ,                 0.0 ,        0.0 ,3.5125169497983384     ,            0.0 ,            0.0 ,            0.0 ,              0.0 ,                   0.0 ,  0.0 ,0.0 , 389.19251618883     ,1.0                ,0.0 ,-197.79789053077266 ,-394.47813003506053 ,-7.640757223993251      ,-197.3422635237689  ,          0.0 ,          0.0 ,-197.49910214446103 ,-394.7769184213721  ,-197.3422635237689  ,-789.618284089602   ,113.94366233973292   ,263.2060952051937   ,197.3562902067062    ,-267.8025809922451    ,-464.4828204965329  ,-7.640757223993251      ,-267.3469082888944  ,          0.0 ,          0.0 ,-267.5037926059334   ,-464.7815616605186  ,-267.3469082888944  ,-999.6320696366736  ,113.94366233973292   ,333.21078566666614   ,197.3562902067062    ,-4.122845565501289e-06  ,-2.922504129184094e-05  ,-5.644734770655917e-06  ,      0.0 ,      0.0 ,      0.0 ,-3.775290193254657e-06  ,-2.9572598333490854e-05 ,      0.0 ,-3.334788654749098e-05  ,1.6127870527729763e-05 ,0.6127431331661306   ,1.0                     ,-0.00408481151486622    ,-4.994559003649717e-06  ,0.0                    ,0.00408481555515991    ,0.0 ,-70.00467177999673    ,-70.00467177999673      ,        0.0 ,        0.0 , 0.0
 0.0 ,0.0 ,           0.0 ,            0.0 ,            0.0 ,            0.0 ,              0.0 ,                   0.0 ,  47.0 ,21.15385 ,-25.61538 ,           0.0 ,           0.0 ,       0.0 ,-68.79352      ,-18.73603   ,0.05014059       ,-0.0008640129    ,                 0.0 ,             0.0 ,             0.0 ,                 0.0 ,                 0.0 ,        0.0 ,1.107208740151329      ,            0.0 ,            0.0 ,            0.0 ,              0.0 ,                   0.0 ,  0.0 ,0.0 , 390.6606319467393   ,1.0                ,0.0 ,-195.2805813677785  ,-390.65286909993154 ,-7.280210370632625      ,-195.23321268798622 ,          0.0 ,          0.0 ,-195.00797997464815 ,-390.9253732560899  ,-195.23321268798622 ,-781.1665659187244  ,113.04816321420786   ,260.38883950537775  ,195.80520736139624   ,-263.0684418356374    ,-458.4406797334095  ,-7.280210370632625      ,-263.0210233214642  ,          0.0 ,          0.0 ,-262.79588784509804  ,-458.71323372394875 ,-263.0210233214642  ,-984.530094724892   ,113.04816321420786   ,328.1767473758277    ,195.80520736139624   ,-1.9938090948132686e-06 ,-7.668030832359815e-06  ,-1.7225331527469488e-06 ,      0.0 ,      0.0 ,      0.0 ,-1.8657434719708182e-06 ,-7.796095569035771e-06  ,      0.0 ,-9.661839456459555e-06  ,4.070849713253538e-06  ,0.9888247422602133   ,0.024431304151667544    ,-0.0022558813527347086  ,-1.3016768987137396e-07 ,0.004412421883215316   ,-66.15471427917298     ,0.0 ,-1.6330902365203452   ,-1.6330902365203452     ,        0.0 ,        0.0 , 0.0
 0.0 ,0.0 ,           0.0 ,            0.0 ,            0.0 ,            0.0 ,              0.0 ,                   0.0 ,  48.0 ,23.07692 ,-25.30769 ,           0.0 ,           0.0 ,       0.0 ,-65.76754      ,-18.73094   ,0.04565534       ,-0.0001694505    ,                 0.0 ,             0.0 ,             0.0 ,                 0.0 ,                 0.0 ,        0.0 ,2.217622780609128      ,            0.0 ,            0.0 ,            0.0 ,              0.0 ,                   0.0 ,  0.0 ,0.0 , 239.20002031462698  ,1.0                ,0.0 ,-194.23753610004192 ,-389.0223423318683  ,-7.201256119277078      ,-194.04933242941843 ,          0.0 ,          0.0 ,-193.96818169889605 ,-389.29164458855246 ,-194.04933242941843 ,-777.3091848101272  ,112.74674328518358   ,259.1030782770522   ,195.28306147319378   ,-258.0011438833174    ,-452.78587404291295 ,-7.201256119277078      ,-257.81286630595423 ,          0.0 ,          0.0 ,-257.7317655544024   ,-453.055252371828   ,-257.81286630595423 ,-968.599956015492   ,112.74674328518358   ,322.8666360392983    ,195.28306147319378   ,-3.0016940139852914e-06 ,-2.3274072969455993e-05 ,-4.467760059809546e-06  ,      0.0 ,      0.0 ,      0.0 ,-2.7433909815618815e-06 ,-2.353237428446692e-05  ,      0.0 ,-2.6275766570271224e-05 ,1.2923631473850035e-05 ,0.8952948962228313   ,0.258493250386993       ,-0.0005697910221803579  ,1.5142312923672837e-06  ,0.0024393531778818126  ,-49.95623559502147     ,0.0 ,-13.806768538340094   ,-13.806768538340094     ,        0.0 ,        0.0 , 0.0
 0.0 ,0.0 ,           0.0 ,            0.0 ,            0.0 ,            0.0 ,              0.0 ,                   0.0 ,  49.0 ,25.0     ,-25.0     ,           0.0 ,           0.0 ,       0.0 ,-62.73466      ,-18.72653   ,0.04159603       ,0.0008423206     ,                 0.0 ,             0.0 ,             0.0 ,                 0.0 ,                 0.0 ,        0.0 ,1.0                    ,            0.0 ,            0.0 ,            0.0 ,              0.0 ,                   0.0 ,  0.0 ,0.0 , 247.09173538165504  ,1.0                ,0.0 ,-192.50837330894794 ,-386.72165734838563 ,-6.991806164311973      ,-192.6327787081853  ,          0.0 ,          0.0 ,-192.25476433739226 ,-386.9752157894794  ,-192.6327787081853  ,-771.8628077708929  ,112.31297412140368   ,257.28760188085494  ,194.53176953516177   ,-253.05125201222822   ,-447.26446238106087 ,-6.991806164311973      ,-253.17563267669652 ,          0.0 ,          0.0 ,-252.7976446352985   ,-447.51806975799065 ,-253.17563267669652 ,-953.4913486646115  ,112.31297412140368   ,317.8304332429252    ,194.53176953516177   ,-2.2714988885316648e-06 ,-2.4671961331377673e-05 ,-4.3817925798266665e-06 ,      0.0 ,      0.0 ,      0.0 ,-2.047153319631307e-06  ,-2.48963084250452e-05   ,      0.0 ,-2.69434626560919e-05   ,1.38497629905192e-05   ,0.6087928766709297   ,1.0                     ,-0.002179086638418807   ,5.577199752003434e-06   ,0.0                    ,0.002179094191562204   ,0.0 ,-60.542850032351225   ,-60.542850032351225     ,        0.0 ,        0.0 , 0.0
 0.0 ,0.0 ,           0.0 ,            0.0 ,            0.0 ,            0.0 ,              0.0 ,                   0.0 ,  50.0 ,26.92308 ,-24.69231 ,           0.0 ,           0.0 ,       0.0 ,-59.69736      ,-18.72257   ,0.03868704       ,0.002224984      ,                 0.0 ,             0.0 ,             0.0 ,                 0.0 ,                 0.0 ,        0.0 ,2.4992130931740784     ,            0.0 ,            0.0 ,            0.0 ,              0.0 ,                   0.0 ,  0.0 ,0.0 , 409.80923101287095  ,1.0                ,0.0 ,-190.96139533921166 ,-384.1322149086052  ,-6.605834005212952      ,-191.1852532414021  ,          0.0 ,          0.0 ,-190.73401521665969 ,-384.35954628268473 ,-191.1852532414021  ,-766.2788147407466  ,111.65968839492048   ,255.42625575667736  ,193.40026394406044   ,-248.51624057631943   ,-441.6871101194828  ,-6.605834005212952      ,-248.7401484522797  ,          0.0 ,          0.0 ,-248.28895917600963  ,-441.91439024203476 ,-248.7401484522797  ,-938.9434966450267  ,111.65968839492048   ,312.9811484644996    ,193.40026394406044   ,-1.7079414424570386e-06 ,-3.5211186614209016e-05 ,-5.68138018201728e-06   ,      0.0 ,      0.0 ,      0.0 ,-1.4607091981591757e-06 ,-3.545842168084466e-05  ,      0.0 ,-3.691912766685578e-05  ,2.0090402295090123e-05 ,0.7997135593300084   ,0.4990106862234219      ,-0.0010928094236239178  ,3.482656958706935e-06   ,0.00125162004978717    ,-32.7629430343871      ,0.0 ,-24.790866394711234   ,-24.790866394711234     ,        0.0 ,        0.0 , 0.0
 0.0 ,0.0 ,           0.0 ,            0.0 ,            0.0 ,            0.0 ,              0.0 ,                   0.0 ,  51.0 ,28.84615 ,-24.38462 ,           0.0 ,           0.0 ,       0.0 ,-56.6574       ,-18.71888   ,0.03721634       ,0.002758124      ,                 0.0 ,             0.0 ,             0.0 ,                 0.0 ,                 0.0 ,        0.0 ,2.52842022941657       ,            0.0 ,            0.0 ,            0.0 ,              0.0 ,                   0.0 ,  0.0 ,0.0 , 417.7328455562996   ,1.0                ,0.0 ,-189.49151134073364 ,-381.6642336795205  ,-6.123180645260888      ,-189.81687897436169 ,          0.0 ,          0.0 ,-189.29435049910825 ,-381.86139452114594 ,-189.81687897436169 ,-760.9725730472748  ,111.02811016885639   ,253.65755743751583  ,192.30625360494506   ,-244.0155055550246    ,-436.1882278938115  ,-6.123180645260888      ,-244.34087318865264 ,          0.0 ,          0.0 ,-243.8183447133992   ,-436.38534005014145 ,-244.34087318865264 ,-924.5445579521933  ,111.02811016885639   ,308.1815029665114    ,192.30625360494506   ,-1.4627366163642985e-06 ,-3.5783727655703446e-05 ,-5.14257283502792e-06   ,      0.0 ,      0.0 ,      0.0 ,-1.265810149471289e-06  ,-3.5980651739279025e-05 ,      0.0 ,-3.724645963507582e-05  ,2.04392875844012e-05   ,0.6183380533236704   ,1.0                     ,-0.002347176709683978   ,-5.356654349881693e-07  ,0.0                    ,0.002347197658253068   ,0.0 ,-54.523994892904625   ,-54.523994892904625     ,        0.0 ,        0.0 , 0.0
 0.0 ,0.0 ,           0.0 ,            0.0 ,            0.0 ,            0.0 ,              0.0 ,                   0.0 ,  52.0 ,30.76923 ,-24.07692 ,           0.0 ,           0.0 ,       0.0 ,-53.61596      ,-18.71533   ,0.03608534       ,0.003061823      ,                 0.0 ,             0.0 ,             0.0 ,                 0.0 ,                 0.0 ,        0.0 ,2.4311486222876866     ,            0.0 ,            0.0 ,            0.0 ,              0.0 ,                   0.0 ,  0.0 ,0.0 , 636.2412906094097   ,1.0                ,0.0 ,-188.3168746273204  ,-379.03795362760616 ,-5.545473688777843      ,-188.6079466310477  ,          0.0 ,          0.0 ,-188.15396048589164 ,-379.20083960588033 ,-188.6079466310477  ,-755.9626990178656  ,110.1702301487946    ,251.98756480925792  ,190.82044844845808   ,-239.8026496448134    ,-430.5237004819446  ,-5.545473688777843      ,-240.0936934853862  ,          0.0 ,          0.0 ,-239.63973550338466  ,-430.68661462337343 ,-240.0936934853862  ,-910.4200436121444  ,110.1702301487946    ,303.47333982675093   ,190.82044844845808   ,-7.309952775826459e-07  ,-4.639658549732618e-05  ,-6.0019744151985915e-06 ,      0.0 ,      0.0 ,      0.0 ,-5.320366382145794e-07  ,-4.6595543804196616e-05 ,      0.0 ,-4.71275810707191e-05   ,2.6755806790080836e-05 ,0.6253880098473121   ,1.0                     ,-0.002348961551375628   ,-4.321562869461296e-06  ,0.0                    ,0.002348973821911473   ,0.0 ,-51.48578088003289    ,-51.48578088003289      ,        0.0 ,        0.0 , 0.0
 0.0 ,0.0 ,           0.0 ,            0.0 ,            0.0 ,            0.0 ,              0.0 ,                   0.0 ,  53.0 ,32.69231 ,-23.76923 ,           0.0 ,           0.0 ,       0.0 ,-50.57378      ,-18.71185   ,0.03414172       ,0.003211806      ,                 0.0 ,             0.0 ,             0.0 ,                 0.0 ,                 0.0 ,        0.0 ,0.5652430308035382     ,            0.0 ,            0.0 ,            0.0 ,              0.0 ,                   0.0 ,  0.0 ,0.0 , 415.89602328931966  ,1.0                ,0.0 ,-185.7620609850783  ,-375.3335559603721  ,-4.864644876890164      ,-186.6430517213537  ,          0.0 ,          0.0 ,-185.6372812856012  ,-375.45828698342336 ,-186.6430517213537  ,-747.7385725907427  ,109.30413857882644   ,249.24615818423734  ,189.32035643525165   ,-235.24216709561122   ,-424.81366275608394 ,-4.864644876890164      ,-236.12310915546072 ,          0.0 ,          0.0 ,-235.11738935810342  ,-424.938442455561   ,-236.12310915546072 ,-896.1788916075203  ,109.30413857882644   ,298.7263136563751    ,189.32035643525165   ,1.663415653511923e-08   ,-2.8384365196855956e-05 ,-3.2154520078862786e-06 ,      0.0 ,      0.0 ,      0.0 ,1.0735872673217142e-07  ,-2.8475089286890887e-05 ,      0.0 ,-2.836773046005911e-05  ,1.6471179998664674e-05 ,0.6191151025790798   ,1.0                     ,-0.001862108680102669   ,-0.0004611216747485541  ,0.0                    ,0.0019917247681526034  ,0.0 ,-49.48010137992611    ,-49.48010137992611      ,        0.0 ,        0.0 , 0.0
 0.0 ,0.0 ,           0.0 ,            0.0 ,            0.0 ,            0.0 ,              0.0 ,                   0.0 ,  54.0 ,34.61538 ,-23.46154 ,           0.0 ,           0.0 ,       0.0 ,-47.53132      ,-18.70841   ,0.03083391       ,0.002941456      ,                 0.0 ,             0.0 ,             0.0 ,                 0.0 ,                 0.0 ,        0.0 ,0.5082921104217577     ,            0.0 ,            0.0 ,            0.0 ,              0.0 ,                   0.0 ,  0.0 ,0.0 , 412.2055462507344   ,1.0                ,0.0 ,-184.30736655920754 ,-372.6955974514308  ,-4.283737588509083      ,-185.22005185128063 ,          0.0 ,          0.0 ,-184.20862823757358 ,-372.79433577306474 ,-185.22005185128063 ,-742.2230169768952  ,108.58931257204345   ,247.40767251614193  ,188.08222585565738   ,-230.74621106999314   ,-419.1344911330052  ,-4.283737588509083      ,-231.65889636206617 ,          0.0 ,          0.0 ,-230.64747329180489  ,-419.23322945463923 ,-231.65889636206617 ,-881.5395493942756  ,108.58931257204345   ,293.8465159119512    ,188.08222585565738   ,3.0256520587055686e-07  ,-2.8822475802778002e-05 ,-2.543635964493032e-06  ,      0.0 ,      0.0 ,      0.0 ,3.5799960759072507e-07  ,-2.887791018656446e-05  ,      0.0 ,-2.8519910342761388e-05 ,1.6777045699195488e-05 ,0.8014601047855283   ,0.4960474516177549      ,-0.0007621118268456925  ,-0.0004576107693642131  ,0.0010949031445735343  ,-27.07265215409534     ,0.0 ,-19.36530008817552    ,-19.36530008817552      ,        0.0 ,        0.0 , 0.0
 0.0 ,0.0 ,           0.0 ,            0.0 ,            0.0 ,            0.0 ,              0.0 ,                   0.0 ,  55.0 ,36.53846 ,-23.15385 ,           0.0 ,           0.0 ,       0.0 ,-44.48884      ,-18.70496   ,0.02713615       ,0.002606763      ,                 0.0 ,             0.0 ,             0.0 ,                 0.0 ,                 0.0 ,        0.0 ,1.0                    ,            0.0 ,            0.0 ,            0.0 ,              0.0 ,                   0.0 ,  0.0 ,0.0 , 413.2107479089334   ,1.0                ,0.0 ,-183.60616272551604 ,-371.46305465809843 ,-3.684188232447977      ,-184.24348454763623 ,          0.0 ,          0.0 ,-183.53386515692284 ,-371.53535222669166 ,-184.24348454763623 ,-739.3127513942075  ,108.33840676397287   ,246.4375834400403   ,187.64767907021002   ,-225.93945347450017   ,-413.7963454070826  ,-3.684188232447977      ,-226.57677529662038 ,          0.0 ,          0.0 ,-225.8672056162183   ,-413.86864297567575 ,-226.57677529662038 ,-866.3125733514712  ,108.33840676397287   ,288.7708247260677    ,187.64767907021002   ,-1.2508132693139446e-07 ,-3.731426565620767e-05  ,-3.332989009510642e-06  ,      0.0 ,      0.0 ,      0.0 ,-5.0334893026194086e-08 ,-3.738901051085076e-05  ,      0.0 ,-3.743934654762415e-05  ,2.1577458083695664e-05 ,0.7984634668208652   ,0.5042934524375432      ,-0.001098910242977867   ,-5.3327920552141965e-06 ,0.0010769876240414424  ,-26.629449451589334    ,0.0 ,-15.702736508535374   ,-15.702736508535374     ,        0.0 ,        0.0 , 0.0
 0.0 ,0.0 ,           0.0 ,            0.0 ,            0.0 ,            0.0 ,              0.0 ,                   0.0 ,  56.0 ,38.46154 ,-22.84615 ,           0.0 ,           0.0 ,       0.0 ,-41.4465       ,-18.7015    ,0.02361496       ,0.00220722       ,                 0.0 ,             0.0 ,             0.0 ,                 0.0 ,                 0.0 ,        0.0 ,0.4928735297104353     ,            0.0 ,            0.0 ,            0.0 ,              0.0 ,                   0.0 ,  0.0 ,0.0 , 423.71702681528404  ,1.0                ,0.0 ,-181.88256233865906 ,-368.2930874586008  ,-2.920412573378112      ,-182.81758483688031 ,          0.0 ,          0.0 ,-181.83477275123187 ,-368.340877046028   ,-182.81758483688031 ,-732.9932346341402  ,107.39685340284474   ,244.3310448780467   ,186.01684574991094   ,-222.26601492394082   ,-408.6765400438826  ,-2.920412573378112      ,-223.2010374221621  ,          0.0 ,          0.0 ,-222.21827354250667  ,-408.72432963130984 ,-223.2010374221621  ,-854.1435913086257  ,107.39685340284474   ,284.7144974633285    ,186.01684574991094   ,-4.119960088710335e-07  ,-8.942911096182968e-06  ,-8.26741491048e-07      ,      0.0 ,      0.0 ,      0.0 ,-3.9194315755960107e-07 ,-8.962962436717263e-06  ,      0.0 ,-9.35490694296331e-06   ,5.0659658334874915e-06 ,0.6193405049059406   ,1.0                     ,-0.0019782891697761856  ,-0.00023986740560155755 ,0.0                    ,0.0020080599244260222  ,0.0 ,-40.38345729774509    ,-40.38345729774509      ,        0.0 ,        0.0 , 0.0
 0.0 ,0.0 ,           0.0 ,            0.0 ,            0.0 ,            0.0 ,              0.0 ,                   0.0 ,  57.0 ,40.38462 ,-22.53846 ,           0.0 ,           0.0 ,       0.0 ,-38.40441      ,-18.69802   ,0.0201483        ,0.001785204      ,                 0.0 ,             0.0 ,             0.0 ,                 0.0 ,                 0.0 ,        0.0 ,1.4152166836497542     ,            0.0 ,            0.0 ,            0.0 ,              0.0 ,                   0.0 ,  0.0 ,0.0 , 431.5595359912982   ,1.0                ,0.0 ,-180.58156140394337 ,-365.08645150451264 ,-2.208889407260029      ,-181.37185067131355 ,          0.0 ,          0.0 ,-180.5534602713333  ,-365.1145998110121  ,-181.37185067131355 ,-727.039910753659   ,106.32117135510094   ,242.34663716371747  ,184.15373084287546   ,-218.63501793774134   ,-403.13995840705724 ,-2.208889407260029      ,-219.42526003122202 ,          0.0 ,          0.0 ,-218.60691999998852  ,-403.16805953966735 ,-219.42526003122202 ,-841.2002867447674  ,106.32117135510094   ,280.4000936975154    ,184.15373084287546   ,-7.382279699923232e-07  ,-5.679514573100575e-06  ,3.771712853150742e-08   ,      0.0 ,      0.0 ,      0.0 ,-7.381557939414571e-07  ,-5.6795853339347575e-06 ,      0.0 ,-6.4177434865706876e-06 ,3.088157534081176e-06  ,0.9910739527039197   ,0.020977537720366132    ,-0.00020511559943005067 ,-1.1371893465369887e-05 ,0.003613718024538797   ,-36.84127913176467     ,0.0 ,-1.2121192845504336   ,-1.2121192845504336     ,        0.0 ,        0.0 , 0.0
 0.0 ,0.0 ,           0.0 ,            0.0 ,            0.0 ,            0.0 ,              0.0 ,                   0.0 ,  58.0 ,42.30769 ,-22.23077 ,           0.0 ,           0.0 ,       0.0 ,-35.36264      ,-18.69451   ,0.01816866       ,0.001260816      ,                 0.0 ,             0.0 ,             0.0 ,                 0.0 ,                 0.0 ,        0.0 ,1.9669946592889458     ,            0.0 ,            0.0 ,            0.0 ,              0.0 ,                   0.0 ,  0.0 ,0.0 , 428.26544926495495  ,1.0                ,0.0 ,-179.50471463123725 ,-362.79197091321817 ,-1.5025544663278592     ,-180.07279707855935 ,          0.0 ,          0.0 ,-179.49224064914026 ,-362.8044448953152  ,-180.07279707855935 ,-722.3694826230146  ,105.66867717672793   ,240.7898444827161   ,183.02353778637445   ,-213.88725560169456   ,-397.17451643102675 ,-1.5025544663278592     ,-214.45529032269224 ,          0.0 ,          0.0 ,-213.8747847184067   ,-397.1869904131237  ,-214.45529032269224 ,-825.517113180547   ,105.66867717672793   ,275.17233772684904   ,183.02353778637445   ,1.6693997978516734e-07  ,-9.590783091246587e-06  ,-8.861024999627513e-07  ,      0.0 ,      0.0 ,      0.0 ,1.8721106577329777e-07  ,-9.61105379115406e-06   ,      0.0 ,-9.423844858579939e-06  ,5.603867881892089e-06  ,1.0                  ,-0.002161365798144371   ,-0.00017138241011743454 ,0.0                     ,0.0021791182138684887  ,-34.38253340915962     ,0.0 ,0.0                   ,0.0                     ,        0.0 ,        0.0 , 0.0
 0.0 ,0.0 ,           0.0 ,            0.0 ,            0.0 ,            0.0 ,              0.0 ,                   0.0 ,  59.0 ,44.23077 ,-21.92308 ,           0.0 ,           0.0 ,       0.0 ,-32.32128      ,-18.69095   ,0.01533965       ,0.0004295776     ,                 0.0 ,             0.0 ,             0.0 ,                 0.0 ,                 0.0 ,        0.0 ,2.5057518380919603     ,            0.0 ,            0.0 ,            0.0 ,              0.0 ,                   0.0 ,  0.0 ,0.0 , 426.7453771863649   ,1.0                ,0.0 ,-178.24184710706055 ,-360.1482590163935  ,-0.628509422461531      ,-178.5003453041752  ,          0.0 ,          0.0 ,-178.2371509847652  ,-360.15295513868887 ,-178.5003453041752  ,-716.8904016193571  ,104.95342078919623   ,238.96348380920975  ,181.78462483386215   ,-208.50613743235613   ,-390.41250394539594 ,-0.628509422461531      ,-208.76458783546025 ,          0.0 ,          0.0 ,-208.50139351605026  ,-390.4172000676913  ,-208.76458783546025 ,-807.6832292132123  ,104.95342078919623   ,269.22772634049477   ,181.78462483386215   ,1.7825111187698494e-06  ,-3.961326971945802e-05  ,-2.264595726747645e-06  ,      0.0 ,      0.0 ,      0.0 ,1.817848246949344e-06   ,-3.9648608481753825e-05 ,      0.0 ,-3.783076435388866e-05  ,2.3435449725200522e-05 ,1.0                  ,-0.0023590680277861004  ,9.792778925542739e-06   ,0.0                     ,0.0023591125203357034  ,-30.26427751211223     ,0.0 ,0.0                   ,0.0                     ,        0.0 ,        0.0 , 0.0
 0.0 ,0.0 ,           0.0 ,            0.0 ,            0.0 ,            0.0 ,              0.0 ,                   0.0 ,  60.0 ,46.15385 ,-21.61538 ,           0.0 ,           0.0 ,       0.0 ,-29.2804       ,-18.68734   ,0.01461333       ,-0.00041201      ,                 0.0 ,             0.0 ,             0.0 ,                 0.0 ,                 0.0 ,        0.0 ,3.470596015837331      ,            0.0 ,            0.0 ,            0.0 ,              0.0 ,                   0.0 ,  0.0 ,0.0 , 416.3421908866372   ,1.0                ,0.0 ,-176.29268186436155 ,-355.22353398158384 ,0.4861569376151018      ,-176.4147979262102  ,          0.0 ,          0.0 ,-176.28656503550724 ,-355.22965018682896 ,-176.4147979262102  ,-707.9310127207182  ,103.275905588501     ,235.97700459071854  ,178.8791259500092    ,-204.36446128711975   ,-383.295313404342   ,0.4861569376151018      ,-204.48657734896838 ,          0.0 ,          0.0 ,-204.35834508187457  ,-383.30138044711055 ,-204.48657734896838 ,-792.14635204043    ,103.275905588501     ,264.04878401347673   ,178.8791259500092    ,1.0938358612313145e-06  ,-2.8802350710012402e-05 ,4.6379985571943814e-07  ,      0.0 ,      0.0 ,      0.0 ,1.1208005442791037e-06  ,-2.882931499889149e-05  ,      0.0 ,-2.7708517901352964e-05 ,1.6978274293889003e-05 ,0.816022240996136    ,0.49658517105234723     ,-0.0028779585752617813  ,-4.826725173680581e-05  ,0.0012756920139059308  ,-9.740844833218668     ,0.0 ,-18.328060444421133   ,-18.328060444421133     ,        0.0 ,        0.0 , 0.0
 0.0 ,0.0 ,           0.0 ,            0.0 ,            0.0 ,            0.0 ,              0.0 ,                   0.0 ,  61.0 ,48.07692 ,-21.30769 ,           0.0 ,           0.0 ,       0.0 ,-26.24002      ,-18.68369   ,-0.006355252     ,-0.001730699     ,                 0.0 ,             0.0 ,             0.0 ,                 0.0 ,                 0.0 ,        0.0 ,1.4779716638733658     ,            0.0 ,            0.0 ,            0.0 ,              0.0 ,                   0.0 ,  0.0 ,0.0 , 401.7094137108203   ,0.9999999999999999 ,0.0 ,-173.48289287632682 ,-348.2168432577558  ,1.3569287513139632      ,-173.36596300970447 ,          0.0 ,          0.0 ,-173.46459364593443 ,-348.23514248814826 ,-173.36596300970447 ,-695.0656491429662  ,100.93231862709351   ,231.68851674771727  ,174.8198806622911    ,-199.52571084310975   ,-374.2596612245388  ,1.3569287513139632      ,-199.40878097648738 ,          0.0 ,          0.0 ,-199.5074105125318   ,-374.2779604549312  ,-199.40878097648738 ,-773.1941019431295  ,100.93231862709351   ,257.73133471450024   ,174.8198806622911    ,-2.403722672169076e-06  ,-1.7988096207346375e-05 ,1.5262257280917881e-06  ,      0.0 ,      0.0 ,      0.0 ,-2.3657735051020177e-06 ,-1.8026043830430638e-05 ,      0.0 ,-2.039181642356391e-05  ,9.79623307955534e-06   ,0.9999999999999999   ,-0.0037565460619336617  ,-0.00012857955804853572 ,0.0                     ,0.0037597350574046597  ,-26.0428079669471      ,0.0 ,0.0                   ,0.0                     ,        0.0 ,        0.0 , 0.0
 0.0 ,0.0 ,           0.0 ,            0.0 ,            0.0 ,            0.0 ,              0.0 ,                   0.0 ,  62.0 ,50.0     ,-21.0     ,           0.0 ,           0.0 ,       0.0 ,-23.20002      ,-18.68      ,-0.0006550592    ,-0.005398601     ,                 0.0 ,             0.0 ,             0.0 ,                 0.0 ,                 0.0 ,        0.0 ,1.8349079663819583     ,            0.0 ,            0.0 ,            0.0 ,              0.0 ,                   0.0 ,  0.0 ,0.0 , 347.8280007967444   ,1.0                ,0.0 ,-172.4366025590609  ,-345.4577913745645  ,0.3066633906688616      ,-171.898904961192   ,          0.0 ,          0.0 ,-172.4300517351838  ,-345.46434219844167 ,-171.898904961192   ,-689.7932988948174  ,100.05523890763597   ,229.93109429728213  ,173.30080054049262   ,-194.29297052898565   ,-367.31415934448927 ,0.3066633906688616      ,-193.75527293111674 ,          0.0 ,          0.0 ,-194.28636145050686  ,-367.3207359107937  ,-193.75527293111674 ,-755.3623702924173  ,100.05523890763597   ,251.78746226720688   ,173.30080054049262   ,-1.2927348896541559e-06 ,-2.5599562162178414e-05 ,1.3641388785334529e-06  ,      0.0 ,      0.0 ,      0.0 ,-1.2483467340189228e-06 ,-2.564394498762958e-05  ,      0.0 ,-2.6892295926562273e-05 ,1.4485857444435132e-05 ,1.0                  ,-0.0036552998276515145  ,-7.056933298183927e-05  ,0.0                     ,0.003656003408307902   ,-21.856363415381125    ,0.0 ,0.0                   ,0.0                     ,        0.0 ,        0.0 , 0.0
 0.0 ,0.0 ,           0.0 ,            0.0 ,            0.0 ,            0.0 ,              0.0 ,                   0.0 ,  63.0 ,51.85261 ,-21.0     ,           0.0 ,           0.0 ,       0.0 ,-23.23556      ,-18.67645   ,0.01110796       ,-0.006896058     ,                 0.0 ,             0.0 ,             0.0 ,                 0.0 ,                 0.0 ,        0.0 ,1.6384144678286432     ,            0.0 ,            0.0 ,            0.0 ,              0.0 ,                   0.0 ,  0.0 ,0.0 , 381.70060859651846  ,1.0                ,0.0 ,-173.23178877081534 ,-347.9928295266508  ,0.601597171431329       ,-173.0236056662048  ,          0.0 ,          0.0 ,-173.2259512310978  ,-347.99866706636834 ,-173.0236056662048  ,-694.248223963671   ,100.96371526731599   ,231.41606512025447  ,174.87433935253534   ,-195.8359094084596    ,-370.5969215613875  ,0.601597171431329       ,-195.62769770094147 ,          0.0 ,          0.0 ,-195.8300180909192   ,-370.60280532328215 ,-195.62769770094147 ,-762.0605497180504  ,100.96371526731599   ,254.0201857578987    ,174.87433935253534   ,2.1400764170347406e-07  ,-2.0880325467013556e-05 ,1.8406690688696037e-06  ,      0.0 ,      0.0 ,      0.0 ,2.698598983157178e-07   ,-2.0936174574716415e-05 ,      0.0 ,-2.06663180357827e-05   ,1.2176774082245833e-05 ,0.883391609374679    ,0.28286196870802127     ,-0.000603391633205606   ,-2.6088039790054943e-05 ,0.0031675479278712526  ,-18.58850618788787     ,0.0 ,-4.015058777005557    ,-4.015058777005557      ,        0.0 ,        0.0 , 0.0
 0.0 ,0.0 ,           0.0 ,            0.0 ,            0.0 ,            0.0 ,              0.0 ,                   0.0 ,  64.0 ,53.70522 ,-21.0     ,           0.0 ,           0.0 ,       0.0 ,-23.27136      ,-18.67286   ,-0.0068272       ,-0.005404855     ,                 0.0 ,             0.0 ,             0.0 ,                 0.0 ,                 0.0 ,        0.0 ,0.010983394257668255   ,            0.0 ,            0.0 ,            0.0 ,              0.0 ,                   0.0 ,  0.0 ,0.0 , 399.16183950356555  ,1.0                ,0.0 ,-173.72869826776048 ,-350.0529567481083  ,1.5400947385611903      ,-174.01618002677577 ,          0.0 ,          0.0 ,-173.71479240766018 ,-350.0669107926541  ,-174.01618002677577 ,-697.7978350426446  ,101.73008769248668   ,232.5992451362526   ,176.20171568071996   ,-196.9993589593026    ,-373.3235659902091  ,1.5400947385611903      ,-197.28678926887653 ,          0.0 ,          0.0 ,-196.98540164976092  ,-373.3375204008679  ,-197.28678926887653 ,-767.6097145845014  ,101.73008769248668   ,255.8699058277947    ,176.20171568071996   ,4.536877715832253e-09   ,-1.28646922653558e-07   ,1.530872447783498e-08   ,      0.0 ,      0.0 ,      0.0 ,4.975345797992628e-09   ,-1.2908537975232415e-07 ,      0.0 ,-1.2411004859885717e-07 ,7.600446587072306e-08  ,0.6118821160515528   ,0.9963181788205289      ,-0.0019312624545475732  ,-9.179521577885377e-05  ,2.0692103372499984e-05 ,-0.11813857897559714   ,0.0 ,-23.15056789440213    ,-23.15056789440213      ,        0.0 ,        0.0 , 0.0
 0.0 ,0.0 ,           0.0 ,            0.0 ,            0.0 ,            0.0 ,              0.0 ,                   0.0 ,  65.0 ,55.55783 ,-21.0     ,           0.0 ,           0.0 ,       0.0 ,-23.30738      ,-18.66926   ,-0.003621481     ,-0.00497495      ,                 0.0 ,             0.0 ,             0.0 ,                 0.0 ,                 0.0 ,        0.0 ,1.8927526073717977     ,            0.0 ,            0.0 ,            0.0 ,              0.0 ,                   0.0 ,  0.0 ,0.0 , 617.8239534886003   ,1.0                ,0.0 ,-174.73560363275536 ,-351.0618252978484  ,2.0686013153883724      ,-174.6891528358044  ,          0.0 ,          0.0 ,-174.70927733707774 ,-351.08815397724084 ,-174.6891528358044  ,-700.4865817664081  ,101.83860798527161   ,233.49551782976488  ,176.38964814434115   ,-198.29348555217217   ,-374.6196872811761  ,2.0686013153883724      ,-198.24706064861994 ,          0.0 ,          0.0 ,-198.2671851498933   ,-374.6460159605685  ,-198.24706064861994 ,-771.160259375367   ,101.83860798527161   ,257.0534256425804    ,176.38964814434115   ,3.559841718538271e-07   ,-1.7112262303028637e-05 ,2.6299153993167718e-06  ,      0.0 ,      0.0 ,      0.0 ,4.5593507926431767e-07  ,-1.7212213539267016e-05 ,      0.0 ,-1.675627589148722e-05  ,1.0083538072396438e-05 ,0.6269840805778938   ,0.7408425384897529      ,-0.003141533998342859   ,-4.171210816849002e-05  ,0.00022348349013759518 ,1.6345004577851752     ,0.0 ,-24.572014679193217   ,-24.572014679193217     ,        0.0 ,        0.0 , 0.0
 0.0 ,0.0 ,           0.0 ,            0.0 ,            0.0 ,            0.0 ,              0.0 ,                   0.0 ,  66.0 ,57.41044 ,-21.0     ,           0.0 ,           0.0 ,       0.0 ,-23.34356      ,-18.66564   ,-0.004925604     ,-0.004469751     ,                 0.0 ,             0.0 ,             0.0 ,                 0.0 ,                 0.0 ,        0.0 ,2.418190903343242      ,            0.0 ,            0.0 ,            0.0 ,              0.0 ,                   0.0 ,  0.0 ,0.0 , 620.3714717461952   ,1.0                ,0.0 ,-175.13468813113116 ,-352.11280641708584 ,2.5327782096319114      ,-175.12775528022195 ,          0.0 ,          0.0 ,-175.09727178976607 ,-352.1502227584509  ,-175.12775528022195 ,-702.3752498284389  ,102.21288030334654   ,234.12508088358658  ,177.03787955385368   ,-198.6445105602158    ,-375.6225981733369  ,2.5327782096319114      ,-198.63757770930658 ,          0.0 ,          0.0 ,-198.6070942188507   ,-375.6599890130867  ,-198.63757770930658 ,-772.9046681189233  ,102.21288030334654   ,257.6349104903504    ,177.03787955385368   ,9.402205635024234e-07   ,-2.9285435259480688e-05 ,2.9212407969038247e-06  ,      0.0 ,      0.0 ,      0.0 ,1.0430381508742385e-06  ,-2.9388252492400195e-05 ,      0.0 ,-2.8345211520777104e-05 ,1.7277247717110422e-05 ,0.6182621083812816   ,0.9076297579909001      ,-0.0037515772015401946  ,-2.8807327785426606e-05 ,0.0                    ,0.003751732559851257   ,0.0 ,-22.9520653135448     ,-23.509812669921708     ,        0.0 ,        0.0 , 0.0
 0.0 ,0.0 ,           0.0 ,            0.0 ,            0.0 ,            0.0 ,              0.0 ,                   0.0 ,  67.0 ,59.26305 ,-21.0     ,           0.0 ,           0.0 ,       0.0 ,-23.37987      ,-18.66201   ,-0.006481187     ,-0.004141246     ,                 0.0 ,             0.0 ,             0.0 ,                 0.0 ,                 0.0 ,        0.0 ,2.93763878233454       ,            0.0 ,            0.0 ,            0.0 ,              0.0 ,                   0.0 ,  0.0 ,0.0 , 612.66895874105     ,1.0                ,0.0 ,-175.52058309852825 ,-353.41204096863464 ,3.324163834921592       ,-175.56585793794852 ,          0.0 ,          0.0 ,-175.45770202506526 ,-353.4749636028627  ,-175.56585793794852 ,-704.4985235658764  ,102.74724534506859   ,234.83285681593853  ,177.96341329844714   ,-198.08849626707445   ,-375.9799806962113  ,3.324163834921592       ,-198.1337711064947  ,          0.0 ,          0.0 ,-198.02561519361143  ,-376.04283521064383 ,-198.1337711064947  ,-772.2022161895759  ,102.74724534506859   ,257.40072310254556   ,177.96341329844714   ,6.074196143942277e-07   ,-4.150017297898398e-05  ,3.8843000295948446e-07  ,      0.0 ,      0.0 ,      0.0 ,6.083655099015184e-07   ,-4.150111998193077e-05  ,      0.0 ,-4.089275451409855e-05  ,2.413831214014876e-05  ,0.6195498175938733   ,0.9037996593893438      ,-0.0019356569815303407  ,-2.583236799957331e-05  ,0.0                    ,0.0019358513247276351  ,0.0 ,-21.987036815702524   ,-22.56791096403338      ,        0.0 ,        0.0 , 0.0
 0.0 ,0.0 ,           0.0 ,            0.0 ,            0.0 ,            0.0 ,              0.0 ,                   0.0 ,  68.0 ,61.11566 ,-21.0     ,           0.0 ,           0.0 ,       0.0 ,-23.4163       ,-18.65837   ,-0.009291402     ,-0.003662545     ,                 0.0 ,             0.0 ,             0.0 ,                 0.0 ,                 0.0 ,        0.0 ,2.962139544210697      ,            0.0 ,            0.0 ,            0.0 ,              0.0 ,                   0.0 ,  0.0 ,0.0 , 423.6149286659006   ,1.0                ,0.0 ,-175.15867515922446 ,-353.83636795893216 ,4.043433234822582       ,-175.64112820103878 ,          0.0 ,          0.0 ,-175.0664705071389  ,-353.92857827703034 ,-175.64112820103878 ,-704.6362225768587  ,103.10074143396601   ,234.87874169739507  ,178.57566784141008   ,-197.14772710972508   ,-375.82542306011896 ,4.043433234822582       ,-197.63022574319012 ,          0.0 ,          0.0 ,-197.05556804929023  ,-375.91762456151844 ,-197.63022574319012 ,-770.6033759130343  ,103.10074143396601   ,256.8677911325692    ,178.57566784141008   ,5.036954063915869e-07   ,-3.5896836863739795e-05 ,9.193207047455878e-07   ,      0.0 ,      0.0 ,      0.0 ,5.169372305077825e-07   ,-3.591008179164585e-05  ,      0.0 ,-3.5393142704003065e-05 ,2.0883736367856997e-05 ,0.6147642845488576   ,0.9885877960061644      ,-0.00295041114143712    ,-3.587458912255086e-06  ,0.0                    ,0.0029505289840275357  ,0.0 ,-21.92014307591758    ,-21.98905192003827      ,        0.0 ,        0.0 , 0.0
 0.0 ,0.0 ,           0.0 ,            0.0 ,            0.0 ,            0.0 ,              0.0 ,                   0.0 ,  69.0 ,62.96826 ,-21.0     ,           0.0 ,           0.0 ,       0.0 ,-23.45284      ,-18.65472   ,-0.0144703       ,-0.003089105     ,                 0.0 ,             0.0 ,             0.0 ,                 0.0 ,                 0.0 ,        0.0 ,0.24390927172942545    ,            0.0 ,            0.0 ,            0.0 ,              0.0 ,                   0.0 ,  0.0 ,0.0 , 392.7778982668972   ,1.0                ,0.0 ,-173.7983257343068  ,-351.4999164622207  ,4.565143438630852       ,-174.82638781540794 ,          0.0 ,          0.0 ,-173.68109516125827 ,-351.61713483980566 ,-174.82638781540794 ,-700.1246300119354  ,102.40250209527278   ,233.37485675635543  ,177.36635835567336   ,-197.11032888077742   ,-374.81196715609684 ,4.565143438630852       ,-198.1384507047477  ,          0.0 ,          0.0 ,-196.99315805059803  ,-374.92923798627623 ,-198.1384507047477  ,-770.0608345461584  ,102.40250209527278   ,256.6869196456952    ,177.36635835567336   ,4.384243548862891e-08   ,-1.8595886785923127e-06 ,1.5862115081988966e-07  ,      0.0 ,      0.0 ,      0.0 ,4.714136936608732e-08   ,-1.862887551492453e-06  ,      0.0 ,-1.8157459869989483e-06 ,1.0894021031201914e-06 ,0.9509618945732359   ,0.12021925012999413     ,-0.0005108658312258824  ,2.8774123131483356e-06  ,0.0017365014951148845  ,-21.833104964645475    ,0.0 ,-1.478519466998562    ,-1.478519466998562      ,        0.0 ,        0.0 , 0.0
 0.0 ,0.0 ,           0.0 ,            0.0 ,            0.0 ,            0.0 ,              0.0 ,                   0.0 ,  70.0 ,64.82087 ,-21.0     ,           0.0 ,           0.0 ,       0.0 ,-23.48953      ,-18.65105   ,-0.02353367      ,-0.001644439     ,                 0.0 ,             0.0 ,             0.0 ,                 0.0 ,                 0.0 ,        0.0 ,2.517507763353079      ,            0.0 ,            0.0 ,            0.0 ,              0.0 ,                   0.0 ,  0.0 ,0.0 , 387.20900861481243  ,1.0                ,0.0 ,-173.291441895042   ,-349.18158622788417 ,4.811395957039831       ,-173.84532278205612 ,          0.0 ,          0.0 ,-173.15863493738556 ,-349.3143463961602  ,-173.84532278205612 ,-696.3183041156019  ,101.50607398825616   ,232.1060733995588   ,175.8136745922765    ,-196.97785355045963   ,-372.8680350108469  ,4.811395957039831       ,-197.53173443747377 ,          0.0 ,          0.0 ,-196.84504659280321  ,-373.00081126219754 ,-197.53173443747377 ,-767.3775922924744  ,101.50607398825616   ,255.79252218252157   ,175.8136745922765    ,8.990932379561041e-07   ,-1.8532783431697985e-05 ,3.5801147844386776e-06  ,      0.0 ,      0.0 ,      0.0 ,1.0636591497494338e-06  ,-1.869734781366299e-05  ,      0.0 ,-1.7633692176699735e-05 ,1.1114779963507428e-05 ,0.8265163942788837   ,0.4654347235693229      ,-0.0026859500347855133  ,-8.615155482746972e-06  ,0.002459250971739506   ,-7.043113737437567     ,0.0 ,-16.640643120721812   ,-16.640643120721812     ,        0.0 ,        0.0 , 0.0
 0.0 ,0.0 ,           0.0 ,            0.0 ,            0.0 ,            0.0 ,              0.0 ,                   0.0 ,  71.0 ,66.67348 ,-21.0     ,           0.0 ,           0.0 ,       0.0 ,-23.52642      ,-18.64736   ,-0.04140503      ,-0.0004811288    ,                 0.0 ,             0.0 ,             0.0 ,                 0.0 ,                 0.0 ,        0.0 ,1.40334700556178       ,            0.0 ,            0.0 ,            0.0 ,              0.0 ,                   0.0 ,  0.0 ,0.0 , 382.9765617688669   ,1.0                ,0.0 ,-172.675110695072   ,-347.5240034802764  ,4.489085973695363       ,-172.91022267444885 ,          0.0 ,          0.0 ,-172.55421081630234 ,-347.64485714947716 ,-172.91022267444885 ,-693.1092906402284  ,100.98606867024544   ,231.03639688007613  ,174.91301218877638   ,-194.5979190411306    ,-369.44679837060437 ,4.489085973695363       ,-194.8330310205075  ,          0.0 ,          0.0 ,-194.477019162361    ,-369.5676520398052  ,-194.8330310205075  ,-758.8776685995928  ,100.98606867024544   ,252.95922539348504   ,174.91301218877638   ,9.203722629931282e-07   ,-3.5596160814111345e-05 ,1.2788570254021831e-06  ,      0.0 ,      0.0 ,      0.0 ,9.493786625534772e-07   ,-3.56251695127077e-05   ,      0.0 ,-3.467579276274072e-05  ,2.085294918182656e-05  ,0.8297192175378074   ,0.4602012551809695      ,-0.0010032830942604597  ,-3.852441385602292e-06  ,0.001894437301907908   ,-6.343944384712334     ,0.0 ,-15.577841758761233   ,-15.577841758761233     ,        0.0 ,        0.0 , 0.0
 0.0 ,0.0 ,           0.0 ,            0.0 ,            0.0 ,            0.0 ,              0.0 ,                   0.0 ,  72.0 ,68.52609 ,-21.0     ,           0.0 ,           0.0 ,       0.0 ,-23.5636       ,-18.64364   ,-0.06683569      ,0.005368802      ,                 0.0 ,             0.0 ,             0.0 ,                 0.0 ,                 0.0 ,        0.0 ,1.3002714624449259     ,            0.0 ,            0.0 ,            0.0 ,              0.0 ,                   0.0 ,  0.0 ,0.0 , 390.9507419740633   ,1.0                ,0.0 ,-170.4758608461001  ,-342.1229883075205  ,4.028309189222346       ,-170.3998397025827  ,          0.0 ,          0.0 ,-170.37623617559512 ,-342.2226256583734  ,-170.3998397025827  ,-682.9987015365512  , 99.20874133167942   ,227.66622631254737  ,171.83454609985336   ,-192.28177994484992   ,-363.9288547802148  ,4.028309189222346       ,-192.20575880133254 ,          0.0 ,          0.0 ,-192.18215527434495  ,-364.02850947786607 ,-192.20575880133254 ,-748.4163709274881  , 99.20874133167942   ,249.4721454112972    ,171.83454609985336   ,-1.164840605894908e-06  ,-3.2833170415915106e-05 ,7.967570844867512e-07   ,      0.0 ,      0.0 ,      0.0 ,-1.1591122694372956e-06 ,-3.283889677339936e-05  ,      0.0 ,-3.399801106438803e-05  ,1.8635023394416653e-05 ,0.9355976695312755   ,0.17121193915157482     ,-0.0003961639737445058  ,-1.4273436547255179e-06 ,0.0022561669416291874  ,-15.937387953062451    ,0.0 ,-5.868132169914534    ,-5.868132169914534      ,        0.0 ,        0.0 , 0.0
 0.0 ,0.0 ,           0.0 ,            0.0 ,            0.0 ,            0.0 ,              0.0 ,                   0.0 ,  73.0 ,70.3787  ,-21.0     ,           0.0 ,           0.0 ,       0.0 ,-23.60121      ,-18.63988   ,-0.1470367       ,-0.005626381     ,                 0.0 ,             0.0 ,             0.0 ,                 0.0 ,                 0.0 ,        0.0 ,1.8847415554587656     ,            0.0 ,            0.0 ,            0.0 ,              0.0 ,                   0.0 ,  0.0 ,0.0 , 386.35534511406075  ,1.0                ,0.0 ,-170.30571262204228 ,-328.5925941089142  ,0.7906352067531985      ,-165.27572882322602 ,          0.0 ,          0.0 ,-170.18070875126472 ,-328.7176446352893  ,-165.27572882322602 ,-664.1740822097801  , 93.03277489060987   ,221.3913585069917   ,161.13744959903937   ,-192.77700158962708   ,-351.06387155065454 ,0.7906352067531985      ,-187.74701779081084 ,          0.0 ,          0.0 ,-192.65199771884954  ,-351.1889220770297  ,-187.74701779081084 ,-731.5879260608456  , 93.03277489060987   ,243.86264747457653   ,161.13744959903937   ,-2.322933429611222e-06  ,-2.7792523233439216e-05 ,8.752321926394982e-07   ,      0.0 ,      0.0 ,      0.0 ,-2.3152666387796053e-06 ,-2.7800189162771725e-05 ,      0.0 ,-3.0115456154127714e-05 ,1.5463875942165973e-05 ,1.0                  ,-0.003506651687154911   ,-6.119573338766357e-05  ,0.0                     ,0.0035072422729536105  ,-22.47129489617297     ,0.0 ,0.0                   ,0.0                     ,        0.0 ,        0.0 , 0.0
 0.0 ,0.0 ,           0.0 ,            0.0 ,            0.0 ,            0.0 ,              0.0 ,                   0.0 ,  74.0 ,72.23131 ,-21.0     ,           0.0 ,           0.0 ,       0.0 ,-23.63941      ,-18.63606   ,-0.3360665       ,0.04504615       ,                 0.0 ,             0.0 ,             0.0 ,                 0.0 ,                 0.0 ,        0.0 ,1.6785860170351197     ,            0.0 ,            0.0 ,            0.0 ,              0.0 ,                   0.0 ,  0.0 ,0.0 , 419.5877300539091   ,0.9999999999999999 ,0.0 ,-161.09072119955405 ,-294.6442405050701  ,-7.079365736266449      ,-149.79730666042155 ,          0.0 ,          0.0 ,-160.20618440766268 ,-295.5287933676607  ,-149.79730666042155 ,-605.5322844357449  , 81.33989424613961   ,201.844095797416    ,140.884815486502     ,-183.921726812827     ,-317.4752638221193  ,-7.079365736266449      ,-172.62831227369452 ,          0.0 ,          0.0 ,-183.03717395023648  ,-318.3598166847098  ,-172.62831227369452 ,-674.0252691341655  , 81.33989424613961   ,224.6750676362136    ,140.884815486502     ,-2.3286617578812746e-06 ,-1.5307406425710345e-05 ,-2.3545709987536258e-07 ,      0.0 ,      0.0 ,      0.0 ,-2.3232387504206376e-06 ,-1.531283119700316e-05  ,      0.0 ,-1.7636068668809102e-05 ,8.270996992131123e-06  ,0.8602060279957906   ,0.3355280537458785      ,-0.0007489678056702767  ,-4.9012100100864945e-05 ,0.002217172939228871   ,-11.814563255721094    ,0.0 ,-11.01572751777384    ,-11.01572751777384      ,        0.0 ,        0.0 , 0.0
 0.0 ,0.0 ,           0.0 ,            0.0 ,            0.0 ,            0.0 ,              0.0 ,                   0.0 ,  75.0 ,74.08392 ,-21.0     ,           0.0 ,           0.0 ,       0.0 ,-23.67841      ,-18.63216   ,0.3147564        ,-0.01260983      ,                 0.0 ,             0.0 ,             0.0 ,                 0.0 ,                 0.0 ,        0.0 ,2.181678546465142      ,            0.0 ,            0.0 ,            0.0 ,              0.0 ,                   0.0 ,  0.0 ,0.0 ,1283.423231696732    ,0.9999999999999999 ,0.0 ,-187.69192849055418 ,-343.32354918848137 ,45.439433564024974      ,-174.34065640647248 ,          0.0 ,          0.0 ,-169.4151876185776  ,-361.60031733783967 ,-174.34065640647248 ,-705.3561613628898  ,109.79111035894752   ,235.11875378762994  ,190.16384075849544   ,-211.79104191407026   ,-367.4227155082066  ,45.439433564024974      ,-198.43982272619775 ,          0.0 ,          0.0 ,-193.51432666092103  ,-385.69943076135576 ,-198.43982272619775 ,-777.6536321767292  ,109.79111035894752   ,259.21783993376425   ,190.16384075849544   ,-1.9162102762784108e-07 ,-5.9953019502837e-06    ,6.3456934347531815e-06  ,      0.0 ,      0.0 ,      0.0 ,1.2273206471325686e-06  ,-7.414243677940319e-06  ,      0.0 ,-6.186922977911541e-06  ,4.688475422112739e-06  ,0.8399813805907448   ,0.4679379427092042      ,-0.0016696165556455518  ,-4.8450266016293776e-05 ,0.003100475858001097   ,-9.06260415812831      ,0.0 ,-15.034802659674869   ,-15.034802659674869     ,        0.0 ,        0.0 , 0.0
 0.0 ,0.0 ,           0.0 ,            0.0 ,            0.0 ,            0.0 ,              0.0 ,                   0.0 ,  76.0 ,74.06612 ,-19.1117  ,           0.0 ,           0.0 ,       0.0 ,-4.797255      ,-18.63197   ,0.1607814        ,-0.0002246172    ,                 0.0 ,             0.0 ,             0.0 ,                 0.0 ,                 0.0 ,        0.0 ,3.0                    ,            0.0 ,            0.0 ,            0.0 ,              0.0 ,                   0.0 ,  0.0 ,0.0 , 924.443533089197    ,1.0                ,0.0 ,-184.07557755244227 ,-338.2489455260872  ,38.80630844310962       ,-172.24522184687424 ,          0.0 ,          0.0 ,-174.31766463354728 ,-348.006906594311   ,-172.24522184687424 ,-694.5697930747325  ,100.89325569482125   ,231.52325567622927  ,174.75227425030096   ,-189.76044273534973   ,-343.93382361130796 ,38.80630844310962       ,-177.930099932095   ,          0.0 ,          0.0 ,-180.00254271876804  ,-353.6916846795317  ,-177.930099932095   ,-711.6242791810661  ,100.89325569482125   ,237.208072709808     ,174.75227425030096   ,-1.1274574608848395e-06 ,-5.915390851516495e-06  ,4.76894263144473e-06    ,      0.0 ,      0.0 ,      0.0 ,-1.356030582178856e-07  ,-6.9072457379667804e-06 ,      0.0 ,-7.04284902758477e-06   ,3.9537175426391535e-06 ,0.7223710348511492   ,0.47964706421374426     ,-0.0027998691682617873  ,6.748407687851672e-05   ,0.0018465336545123604  ,-0.6917875502088071    ,0.0 ,-4.670312512376153    ,-4.670312512376153      ,        0.0 ,        0.0 , 0.0
 0.0 ,0.0 ,           0.0 ,            0.0 ,            0.0 ,            0.0 ,              0.0 ,                   0.0 ,  77.0 ,74.6361  ,-17.31139 ,           0.0 ,           0.0 ,       0.0 ,13.19059       ,-18.63045   ,0.1286992        ,-0.005097012     ,                 0.0 ,             0.0 ,             0.0 ,                 0.0 ,                 0.0 ,        0.0 ,2.4067652574970375     ,            0.0 ,            0.0 ,            0.0 ,              0.0 ,                   0.0 ,  0.0 ,0.0 , 898.3331134527277   ,1.0                ,0.0 ,-163.3448075570934  ,-325.2859098684639  ,26.29089078545303       ,-162.97535539964588 ,          0.0 ,          0.0 ,-159.13580860590199 ,-329.4949088196553  ,-162.97535539964588 ,-651.6061321486773  , 97.28878981656182   ,217.20206544703836  ,168.5091329437057    ,-158.90408043420499   ,-320.8451827455754  ,26.29089078545303       ,-158.53462827675745 ,          0.0 ,          0.0 ,-154.69508148301358  ,-325.0541637929857  ,-158.53462827675745 ,-638.2838735527567  , 97.28878981656182   ,212.76127900067567   ,168.5091329437057    ,-1.3407620758578615e-06 ,-2.4302424303450363e-06 ,2.967896197454105e-06   ,      0.0 ,      0.0 ,      0.0 ,-2.3668703496017222e-07 ,-3.5343175837325032e-06 ,      0.0 ,-3.771004568080096e-06  ,1.979162473045188e-06  ,0.39921443932131584  ,-0.0006177554350883776  ,9.97649993648453e-06    ,0.0                     ,0.0006178567704329879  ,13.521964710708737     ,0.0 ,0.0                   ,0.0                     ,        0.0 ,        0.0 , 0.0
 0.0 ,0.0 ,           0.0 ,            0.0 ,            0.0 ,            0.0 ,              0.0 ,                   0.0 ,  78.0 ,75.73741 ,-15.7774  ,           0.0 ,           0.0 ,       0.0 ,28.50592       ,-18.62799   ,0.08711237       ,-0.01200591      ,                 0.0 ,             0.0 ,             0.0 ,                 0.0 ,                 0.0 ,        0.0 ,3.081723123038532      ,            0.0 ,            0.0 ,            0.0 ,              0.0 ,                   0.0 ,  0.0 ,0.0 ,1274.223659734813    ,1.0                ,0.0 ,-142.07103585702743 ,-300.7343451555643  ,19.607616067881093      ,-149.34331720389497 ,          0.0 ,          0.0 ,-139.67221486975149 ,-303.1331779955301  ,-149.34331720389497 ,-592.1487100691766  , 91.71564988056909   ,197.3828791516447   ,158.8561522809683    ,-137.1569622117795    ,-295.8202678299388  ,19.607616067881093      ,-144.42924355864704 ,          0.0 ,          0.0 ,-134.75814122450356  ,-298.21908881721475 ,-144.42924355864704 ,-577.4064736003654  , 91.71564988056909   ,192.46879365370685   ,158.8561522809683    ,-1.5051006467841126e-06 ,-2.295983994746571e-07  ,1.5681158894001373e-06  ,      0.0 ,      0.0 ,      0.0 ,1.6942958745432924e-07  ,-1.9041293493739932e-06 ,      0.0 ,-1.734699720371556e-06  ,1.1514482123300026e-06 ,0.25893284657256166  ,0.017337980924583562    ,-1.4681272715498617e-06 ,-3.6151487725013573e-08 ,3.791683435606115e-05  ,21.253266102370553     ,0.0 ,6.9643119291673825    ,0.7717379562644999      ,        0.0 ,        0.0 , 0.0
 0.0 ,0.0 ,           0.0 ,            0.0 ,            0.0 ,            0.0 ,              0.0 ,                   0.0 ,  79.0 ,77.26095 ,-14.66168 ,           0.0 ,           0.0 ,       0.0 ,39.62748       ,-18.62443   ,0.07555218       ,-0.03436768      ,                 0.0 ,             0.0 ,             0.0 ,                 0.0 ,                 0.0 ,        0.0 ,1.256166022638026      ,            0.0 ,            0.0 ,            0.0 ,              0.0 ,                   0.0 ,  0.0 ,0.0 , 911.1784581981412   ,1.0                ,0.0 ,-127.6549746252301  ,-284.5678992852968  ,13.540373982014192      ,-139.9513992194353  ,          0.0 ,          0.0 ,-126.44410466269571 ,-285.77882963396274 ,-139.9513992194353  ,-552.1743731299622  , 88.35408103145      ,184.05810650627586  ,153.03374813348444   ,-122.69597535257947   ,-279.60886039877767 ,13.540373982014192      ,-134.99236033291618 ,          0.0 ,          0.0 ,-121.48510539004506  ,-280.8198071668794  ,-134.99236033291618 ,-537.2972728898407  , 88.35408103145      ,179.09908403919255   ,153.03374813348444   ,-1.5755856094088071e-06 ,8.046888847191573e-08   ,8.772545172962067e-07   ,      0.0 ,      0.0 ,      0.0 ,1.89480182680932e-07    ,-1.6845963638569892e-06 ,      0.0 ,-1.4951166140591684e-06 ,1.0319794382309852e-06 ,0.4411543559792196   ,0.08422894788030541     ,-4.793871095752335e-06  ,-3.2149367548846563e-07 ,1.8893125482316979e-06 ,18.55935150254917      ,0.0 ,21.633328586245327    ,2.9895260872796436      ,        0.0 ,        0.0 , 0.0
 0.0 ,0.0 ,           0.0 ,            0.0 ,            0.0 ,            0.0 ,              0.0 ,                   0.0 ,  80.0 ,79.05581 ,-14.07476 ,           0.0 ,           0.0 ,       0.0 ,45.45374       ,-18.62013   ,0.05179132       ,0.02075113       ,                 0.0 ,             0.0 ,             0.0 ,                 0.0 ,                 0.0 ,        0.0 ,1.173909696592829      ,            0.0 ,            0.0 ,            0.0 ,              0.0 ,                   0.0 ,  0.0 ,0.0 ,1257.5320417956875   ,1.0                ,0.0 ,-117.57411446055818 ,-272.24779581884525 ,4.219476944247094       ,-132.79517288099007 ,          0.0 ,          0.0 ,-117.43051694459267 ,-272.39147816758043 ,-132.79517288099007 ,-522.6171742654361  , 85.38215455417298   ,174.20572637061997  ,147.88625070544512   ,-112.60397162399013   ,-267.2776467100043  ,4.219476944247094       ,-127.82502599588848 ,          0.0 ,          0.0 ,-112.4603752198943   ,-267.4213353310124  ,-127.82502599588848 ,-507.70673321118625 , 85.38215455417298   ,169.23558353405195   ,147.88625070544512   ,-2.52237100326813e-06   ,2.8706290098256224e-08  ,8.415409988406257e-07   ,      0.0 ,      0.0 ,      0.0 ,9.772405594757943e-08   ,-2.5913888628813436e-06 ,      0.0 ,-2.4936646408103767e-06 ,1.5280974757461362e-06 ,0.5711626481875803   ,0.09404290069721524     ,-3.032073759870518e-06  ,-4.217100955050537e-07  ,4.780242011001755e-07  ,11.265867974696823     ,0.0 ,36.04659082452349     ,4.103599451723605       ,        0.0 ,        0.0 , 0.0
 0.0 ,0.0 ,           0.0 ,            0.0 ,            0.0 ,            0.0 ,              0.0 ,                   0.0 ,  81.0 ,80.94419 ,-14.07476 ,           0.0 ,           0.0 ,       0.0 ,45.40648       ,-18.6154    ,-0.03506036      ,0.009506796      ,                 0.0 ,             0.0 ,             0.0 ,                 0.0 ,                 0.0 ,        0.0 ,3.0190677150854706     ,            0.0 ,            0.0 ,            0.0 ,              0.0 ,                   0.0 ,  0.0 ,0.0 ,1252.9922644063565   ,1.0                ,0.0 ,-117.63226640832133 ,-273.13458575075526 ,-2.8293225728817455     ,-133.2712035648613  ,          0.0 ,          0.0 ,-117.56814845581357 ,-273.1987096309148  ,-133.2712035648613  ,-524.03806283712    , 85.68394302702765   ,174.67938595428464  ,148.4089337832872    ,-112.66582654732844   ,-268.16814826082305 ,-2.8293225728817455     ,-128.30476110066311 ,          0.0 ,          0.0 ,-112.60170859482068  ,-268.2322721409826  ,-128.30476110066311 ,-509.13874539305743 , 85.68394302702765   ,169.71294846435248   ,148.4089337832872    ,-1.869608975979888e-06  ,5.438280434814633e-07   ,1.938066890597736e-06   ,      0.0 ,      0.0 ,      0.0 ,1.002370887267145e-06   ,-2.3281519790420878e-06 ,      0.0 ,-1.3257813682476411e-06 ,1.7168574729420437e-06 ,0.11430605374109487  ,-9.770836157914002e-06  ,-8.689900326467361e-07  ,0.0                     ,9.822384896642173e-06  ,45.037918740090504     ,0.0 ,0.0                   ,0.0                     ,        0.0 ,        0.0 , 0.0
 0.0 ,0.0 ,           0.0 ,            0.0 ,            0.0 ,            0.0 ,              0.0 ,                   0.0 ,  82.0 ,82.73905 ,-14.66168 ,           0.0 ,           0.0 ,       0.0 ,39.4933        ,-18.61102   ,-0.1013764       ,-0.01339256      ,                 0.0 ,             0.0 ,             0.0 ,                 0.0 ,                 0.0 ,        0.0 ,2.3920099006985622     ,            0.0 ,            0.0 ,            0.0 ,              0.0 ,                   0.0 ,  0.0 ,0.0 ,1014.0056838948976   ,1.0                ,0.0 ,-127.38533746330978 ,-286.04927378014276 ,-11.92307306654529      ,-140.51634461963775 ,          0.0 ,          0.0 ,-126.43790817896974 ,-286.9966869554732  ,-140.51634461963775 ,-553.9510076330902  , 88.91810834793718   ,184.65034124736655  ,154.010648971312     ,-122.42561443292404   ,-281.08948287074753 ,-11.92307306654529      ,-135.55658946826145 ,          0.0 ,          0.0 ,-121.47813337858409  ,-282.03696392508743 ,-135.55658946826145 ,-539.071635001933   , 88.91810834793718   ,179.69055033797136   ,154.010648971312     ,-2.412512365610992e-06  ,-1.1902775884431866e-07 ,-6.923635556481144e-07  ,      0.0 ,      0.0 ,      0.0 ,-5.110945347049081e-08  ,-2.4804310137258096e-06 ,      0.0 ,-2.5315403047092723e-06 ,1.4195961586540896e-06 ,0.12476651319587617  ,-5.67648943969584e-06   ,-9.23401055170922e-07   ,0.0                     ,5.779783418274957e-06  ,41.092486687972084     ,0.0 ,0.0                   ,0.0                     ,        0.0 ,        0.0 , 0.0
 0.0 ,0.0 ,           0.0 ,            0.0 ,            0.0 ,            0.0 ,              0.0 ,                   0.0 ,  83.0 ,84.26259 ,-15.7774  ,           0.0 ,           0.0 ,       0.0 ,28.29988       ,-18.60739   ,-0.1326265       ,-0.005611056     ,                 0.0 ,             0.0 ,             0.0 ,                 0.0 ,                 0.0 ,        0.0 ,3.22127173764574       ,            0.0 ,            0.0 ,            0.0 ,              0.0 ,                   0.0 ,  0.0 ,0.0 ,1104.716011315082    ,1.0                ,0.0 ,-141.23185497852913 ,-303.14770120606426 ,-17.913307855567407     ,-150.08146514525816 ,          0.0 ,          0.0 ,-139.24921323409865 ,-305.1304270524283  ,-150.08146514525816 ,-594.4610953722429  , 92.81078198071967   ,198.153701810595    ,160.75299695293347   ,-136.3030902061832    ,-298.2189364337184  ,-17.913307855567407     ,-145.15270037291228 ,          0.0 ,          0.0 ,-134.3203744193615   ,-300.20158823769117 ,-145.15270037291228 ,-579.6747270128138  , 92.81078198071967   ,193.22493703824915   ,160.75299695293347   ,-2.770472740666541e-06  ,-2.807897029470022e-07  ,-1.0745553185985132e-06 ,      0.0 ,      0.0 ,      0.0 ,-1.639219236382498e-07  ,-2.8873406596180398e-06 ,      0.0 ,-3.0512622916983257e-06 ,1.6310455983727033e-06 ,0.24086136739640152  ,0.02283737426695198     ,-1.7898251846871426e-06 ,-3.5299224090117086e-07 ,1.1746241952760955e-05 ,24.702853119806665     ,0.0 ,5.473403796294907     ,0.7866506349145761      ,        0.0 ,        0.0 , 0.0
 0.0 ,0.0 ,           0.0 ,            0.0 ,            0.0 ,            0.0 ,              0.0 ,                   0.0 ,  84.0 ,85.3639  ,-17.31139 ,           0.0 ,           0.0 ,       0.0 ,12.93424       ,-18.60481   ,-0.1234723       ,-0.004044469     ,                 0.0 ,             0.0 ,             0.0 ,                 0.0 ,                 0.0 ,        0.0 ,0.8135355654137755     ,            0.0 ,            0.0 ,            0.0 ,              0.0 ,                   0.0 ,  0.0 ,0.0 , 892.3129242649541   ,1.0                ,0.0 ,-164.28310161630924 ,-327.464134738336   ,-27.277648431141213     ,-164.01623783219287 ,          0.0 ,          0.0 ,-159.7981022215991  ,-331.94913413304613 ,-164.01623783219287 ,-655.7634597366261  , 98.2036586723399    ,218.5878086433123   ,170.09369722483774   ,-160.35919726418516   ,-323.54026348286715 ,-27.277648431141213     ,-160.0923665767241  ,          0.0 ,          0.0 ,-155.87423096613028  ,-328.025229780922   ,-160.0923665767241  ,-643.9917535503429  , 98.2036586723399    ,214.66390429118817   ,170.09369722483774   ,-7.29478630188528e-07   ,2.059854560613023e-07   ,5.191040277214834e-07   ,      0.0 ,      0.0 ,      0.0 ,2.731744228429258e-07   ,-7.966673122327036e-07  ,      0.0 ,-5.234930520968909e-07  ,5.558575307279643e-07  ,0.7127006492375279   ,0.17447755553153543     ,-0.00011866080373821916 ,-3.072997184357419e-06  ,0.0006820701038200943  ,0.7684870202609718     ,0.0 ,12.481673404165168    ,3.226931040888734       ,        0.0 ,        0.0 , 0.0
 0.0 ,0.0 ,           0.0 ,            0.0 ,            0.0 ,            0.0 ,              0.0 ,                   0.0 ,  85.0 ,85.93388 ,-19.1117  ,           0.0 ,           0.0 ,       0.0 ,-5.079081      ,-18.60379   ,-0.1544136       ,-0.001319426     ,                 0.0 ,             0.0 ,             0.0 ,                 0.0 ,                 0.0 ,        0.0 ,1.7414345829385582     ,            0.0 ,            0.0 ,            0.0 ,              0.0 ,                   0.0 ,  0.0 ,0.0 , 917.4210625364359   ,1.0                ,0.0 ,-182.24175341037028 ,-339.1836080435871  ,-35.90109477226731      ,-172.21401724370114 ,          0.0 ,          0.0 ,-173.98699829363585 ,-347.4383631603215  ,-172.21401724370114 ,-693.639369390327   ,100.66555323545639   ,231.2131156966002   ,174.35784574759953   ,-188.01418025827      ,-344.9560348914868  ,-35.90109477226731      ,-177.98644409160084 ,          0.0 ,          0.0 ,-179.7594251415356   ,-353.2107511584845  ,-177.98644409160084 ,-710.9566685486891  ,100.66555323545639   ,236.98555185183136   ,174.35784574759953   ,-6.848325847507673e-07  ,-2.804745888813928e-06  ,-1.0463545870855111e-07 ,      0.0 ,      0.0 ,      0.0 ,-5.406715265435979e-07  ,-2.9489069803347705e-06 ,      0.0 ,-3.489578287418066e-06  ,1.5764346448691369e-06 ,0.6866352056020326   ,0.6108768471371553      ,-0.003920262663676426   ,-0.00023372580336630596 ,0.000631789181959693   ,1.3545044279752396     ,0.0 ,-6.881360248878549    ,-6.881360248878549      ,        0.0 ,        0.0 , 0.0
 0.0 ,0.0 ,           0.0 ,            0.0 ,            0.0 ,            0.0 ,              0.0 ,                   0.0 ,  86.0 ,85.91608 ,-21.0     ,           0.0 ,           0.0 ,       0.0 ,-23.9511       ,-18.60489   ,-0.3052749       ,-0.01757537      ,                 0.0 ,             0.0 ,             0.0 ,                 0.0 ,                 0.0 ,        0.0 ,2.4659766460186123     ,            0.0 ,            0.0 ,            0.0 ,              0.0 ,                   0.0 ,  0.0 ,0.0 ,1282.7955799375034   ,1.0                ,0.0 ,-189.15407398089334 ,-349.15725477059107 ,-46.63552477218687      ,-177.1374462901079  ,          0.0 ,          0.0 ,-171.10886238587722 ,-367.2024879016673  ,-177.1374462901079  ,-715.4487467008614  ,111.73258679409656   ,238.482904944862    ,193.52654295587553   ,-213.17558538828933   ,-373.1787195803225  ,-46.63552477218687      ,-201.15891109983932 ,          0.0 ,          0.0 ,-195.13035225721308  ,-391.2239777730032  ,-201.15891109983932 ,-787.5133160684511  ,111.73258679409656   ,262.50442315692885   ,193.52654295587553   ,-1.153170972710312e-06  ,-9.861997050179367e-06  ,-1.0437643260882033e-06 ,      0.0 ,      0.0 ,      0.0 ,-4.1764753720285486e-08 ,-1.0973403383147787e-05 ,      0.0 ,-1.101516595237879e-05  ,6.3472668019502765e-06 ,0.8101649509080131   ,0.5309971678988873      ,-0.0024825389283172922  ,-0.0001468393869998897  ,0.003039157273783494   ,-15.441900506279907    ,0.0 ,-8.577413688613037    ,-8.577413688613037      ,        0.0 ,        0.0 , 0.0
 0.0 ,0.0 ,           0.0 ,            0.0 ,            0.0 ,            0.0 ,              0.0 ,                   0.0 ,  87.0 ,87.87028 ,-21.0     ,           0.0 ,           0.0 ,       0.0 ,-24.00374      ,-18.59962   ,0.3434099        ,0.0467834        ,                 0.0 ,             0.0 ,             0.0 ,                 0.0 ,                 0.0 ,        0.0 ,3.009255256559338      ,            0.0 ,            0.0 ,            0.0 ,              0.0 ,                   0.0 ,  0.0 ,0.0 , 754.8860054239722   ,1.0                ,0.0 ,-172.97174576060326 ,-327.93493784759863 ,-14.768807279135757     ,-165.69177210343946 ,          0.0 ,          0.0 ,-168.30019033031454 ,-332.60641151213815 ,-165.69177210343946 ,-666.5984374773907  , 95.69347080486995   ,222.19946669445446  ,165.74596084189096   ,-197.6300549010035    ,-352.5932661477753  ,-14.768807279135757     ,-190.3501630095889  ,          0.0 ,          0.0 ,-192.958581236464    ,-357.26473981231476 ,-190.3501630095889  ,-740.5735022926185  , 95.69347080486995   ,246.8578132288819    ,165.74596084189096   ,-3.000721873332567e-06  ,-1.2248829180022592e-05 ,2.20020968965628e-06    ,      0.0 ,      0.0 ,      0.0 ,-2.328207823847802e-06  ,-1.2921346842875512e-05 ,      0.0 ,-1.52495519407896e-05   ,6.913810875336284e-06  ,0.610211809288916    ,0.9291862135409075      ,-0.00511713509122945    ,-0.0005871843092278413  ,0.0                    ,0.0051520736609523615  ,0.0 ,-24.22236546767783    ,-24.658359017424047     ,        0.0 ,        0.0 , 0.0
 0.0 ,0.0 ,           0.0 ,            0.0 ,            0.0 ,            0.0 ,              0.0 ,                   0.0 ,  88.0 ,89.82447 ,-21.0     ,           0.0 ,           0.0 ,       0.0 ,-24.06025      ,-18.59398   ,0.1342475        ,-0.007256658     ,                 0.0 ,             0.0 ,             0.0 ,                 0.0 ,                 0.0 ,        0.0 ,1.6476521165789226     ,            0.0 ,            0.0 ,            0.0 ,              0.0 ,                   0.0 ,  0.0 ,0.0 , 396.56417743952085  ,0.9999999999999999 ,0.0 ,-166.81577766503938 ,-331.78962541894725 ,1.0424279606872         ,-166.04889276071248 ,          0.0 ,          0.0 ,-166.7910995705953  ,-331.8142711307855  ,-166.04889276071248 ,-664.6542958446992  , 95.49142955381897   ,221.55145448736442  ,165.3960069368058    ,-189.83527815036385   ,-354.8091104762102  ,1.0424279606872         ,-189.0683734393101  ,          0.0 ,          0.0 ,-189.8106324385256   ,-354.8337561880485  ,-189.0683734393101  ,-733.7128142552168  , 95.49142955381897   ,244.57093954462738   ,165.3960069368058    ,-2.667840339901151e-06  ,-2.1223315733628983e-05 ,3.3576246912262875e-06  ,      0.0 ,      0.0 ,      0.0 ,-2.3970137068608574e-06 ,-2.149414398579957e-05  ,      0.0 ,-2.389115902208765e-05  ,1.1791818938702089e-05 ,0.8170242253194338   ,0.47668698945589477     ,-0.002722330475332611   ,-0.00033591378074327956 ,0.0014258992024794063  ,-6.201338350037779     ,0.0 ,-16.815550994076723   ,-16.815550994076723     ,        0.0 ,        0.0 , 0.0
 0.0 ,0.0 ,           0.0 ,            0.0 ,            0.0 ,            0.0 ,              0.0 ,                   0.0 ,  89.0 ,91.77867 ,-21.0     ,           0.0 ,           0.0 ,       0.0 ,-24.12148      ,-18.58785   ,0.04368914       ,0.005072488      ,                 0.0 ,             0.0 ,             0.0 ,                 0.0 ,                 0.0 ,        0.0 ,1.3771638663796806     ,            0.0 ,            0.0 ,            0.0 ,              0.0 ,                   0.0 ,  0.0 ,0.0 , 387.3875084441822   ,1.0                ,0.0 ,-170.65728154593617 ,-341.5238991291975  ,-0.3380562824127388     ,-170.4593744269352  ,          0.0 ,          0.0 ,-170.62537459288833 ,-341.555787224052   ,-170.4593744269352  ,-682.640582824181   , 98.7353336502992    ,227.54686617582962  ,171.01465271406016   ,-193.3354549978231    ,-364.20207258108434 ,-0.3380562824127388     ,-193.13751331732092 ,          0.0 ,          0.0 ,-193.3035480447752   ,-364.2339606759389  ,-193.13751331732092 ,-750.6750754577295  , 98.7353336502992    ,250.22505848590984   ,171.01465271406016   ,-1.4650703061994528e-06 ,-3.0930364468535935e-05 ,2.7518418535263443e-06  ,      0.0 ,      0.0 ,      0.0 ,-1.3544379187091258e-06 ,-3.104099328046737e-05  ,      0.0 ,-3.2395435684353494e-05 ,1.7557733829035875e-05 ,0.7486196961851266   ,0.6534448268674469      ,-0.002888803352901298   ,-0.00037523244949006645 ,0.0009442775834505509  ,-4.105631465632936     ,0.0 ,-18.56969281813717    ,-18.56969281813717      ,        0.0 ,        0.0 , 0.0
 0.0 ,0.0 ,           0.0 ,            0.0 ,            0.0 ,            0.0 ,              0.0 ,                   0.0 ,  90.0 ,93.73286 ,-21.0     ,           0.0 ,           0.0 ,       0.0 ,-24.18889      ,-18.58111   ,0.02187011       ,-0.0005447218    ,                 0.0 ,             0.0 ,             0.0 ,                 0.0 ,                 0.0 ,        0.0 ,2.208258140185909      ,            0.0 ,            0.0 ,            0.0 ,              0.0 ,                   0.0 ,  0.0 ,0.0 , 395.47312269129435  ,1.0                ,0.0 ,-171.74751524105267 ,-345.0139799806851  ,-1.710028409162645      ,-172.1410598393376  ,          0.0 ,          0.0 ,-171.72154050626904 ,-345.0399659126379  ,-172.1410598393376  ,-688.9025662582445  , 99.94464286940297   ,229.63418724611532  ,173.10920572132363   ,-195.77722665172703   ,-369.04362793424116 ,-1.710028409162645      ,-196.1707077928936  ,          0.0 ,          0.0 ,-195.75118845982502  ,-369.0696138661939  ,-196.1707077928936  ,-760.9915623788618  , 99.94464286940297   ,253.6638874596206    ,173.10920572132363   ,-1.0777218920847483e-06 ,-2.0960861152542642e-05 ,2.8227655886958e-06     ,      0.0 ,      0.0 ,      0.0 ,-9.077265982619777e-07  ,-2.113085705304982e-05  ,      0.0 ,-2.203858437585637e-05  ,1.1951923882902756e-05 ,0.7855801401491365   ,0.5200907621789104      ,-0.003909422713888207   ,-0.0003119325835537082  ,0.0025614532746807196  ,-16.758225236105712    ,0.0 ,-7.268025890736709    ,-7.268025890736709      ,        0.0 ,        0.0 , 0.0
 0.0 ,0.0 ,           0.0 ,            0.0 ,            0.0 ,            0.0 ,              0.0 ,                   0.0 ,  91.0 ,95.68706 ,-21.0     ,           0.0 ,           0.0 ,       0.0 ,-24.26436      ,-18.57356   ,0.007343584      ,-0.0001944867    ,                 0.0 ,             0.0 ,             0.0 ,                 0.0 ,                 0.0 ,        0.0 ,1.7319507568666468     ,            0.0 ,            0.0 ,            0.0 ,              0.0 ,                   0.0 ,  0.0 ,0.0 , 404.8534053503701   ,1.0                ,0.0 ,-173.36403226872613 ,-349.0730829806013  ,-2.183444564420189      ,-173.93065033175162 ,          0.0 ,          0.0 ,-173.33429122884297 ,-349.10282402048443 ,-173.93065033175162 ,-696.3677285370918  ,101.30858197168219   ,232.12258360883922  ,175.4716322345381    ,-196.6971774898174    ,-372.40615230241826 ,-2.183444564420189      ,-197.26376874791853 ,          0.0 ,          0.0 ,-196.66736055065994  ,-372.4359303862886  ,-197.26376874791853 ,-766.3670864897913  ,101.30858197168219   ,255.45572882993048   ,175.4716322345381    ,-1.6364408008498844e-06 ,-2.374265278736356e-05  ,2.4449980125933676e-06  ,      0.0 ,      0.0 ,      0.0 ,-1.5432516303886759e-06 ,-2.3835838785691862e-05 ,      0.0 ,-2.5379092073244132e-05 ,1.333935836804151e-05  ,0.8429618496617577   ,0.38450821825075493     ,-0.0021584630716929686  ,-0.00013987697450616406 ,0.004151144906102164   ,-18.8983746435709      ,0.0 ,-4.433469862972922    ,-4.433469862972922      ,        0.0 ,        0.0 , 0.0
 0.0 ,0.0 ,           0.0 ,            0.0 ,            0.0 ,            0.0 ,              0.0 ,                   0.0 ,  92.0 ,97.64126 ,-21.0     ,           0.0 ,           0.0 ,       0.0 ,-24.35023      ,-18.56498   ,0.002114793      ,-0.0005742366    ,                 0.0 ,             0.0 ,             0.0 ,                 0.0 ,                 0.0 ,        0.0 ,2.5085387549450306     ,            0.0 ,            0.0 ,            0.0 ,              0.0 ,                   0.0 ,  0.0 ,0.0 , 406.02260615916646  ,1.0                ,0.0 ,-173.93260345839707 ,-349.67341226086796 ,-2.3116295689547175     ,-174.55408325837485 ,          0.0 ,          0.0 ,-173.9008162975146  ,-349.7051994217504  ,-174.55408325837485 ,-698.160066962101   ,101.31301481898083   ,232.7200160412548   ,175.47927012354862   ,-198.80866222147162   ,-374.54943900840374 ,-2.3116295689547175     ,-199.43015058674226 ,          0.0 ,          0.0 ,-198.77684304505038  ,-374.581258184825   ,-199.43015058674226 ,-772.7882009627422  ,101.31301481898083   ,257.59608336962225   ,175.47927012354862   ,-1.4116307394615817e-06 ,-1.8350788167974658e-05 ,2.6681272404153045e-06  ,      0.0 ,      0.0 ,      0.0 ,-1.1854061884903814e-06 ,-1.8577009164666667e-05 ,      0.0 ,-1.9762416615034366e-05 ,1.0400365069108441e-05 ,0.9678647770133446   ,0.07756934706213        ,-0.0021976210738006543  ,-0.00017874267306483227 ,0.00825308967789535    ,-21.92061610205464     ,0.0 ,-2.954841031980589    ,-2.954841031980589      ,        0.0 ,        0.0 , 0.0
 0.0 ,0.0 ,           0.0 ,            0.0 ,            0.0 ,            0.0 ,              0.0 ,                   0.0 ,  93.0 ,99.59545 ,-21.0     ,           0.0 ,           0.0 ,       0.0 ,-24.4494       ,-18.55506   ,-0.0002578448    ,-0.000463541     ,                 0.0 ,             0.0 ,             0.0 ,                 0.0 ,                 0.0 ,        0.0 ,1.4932542232924977     ,            0.0 ,            0.0 ,            0.0 ,              0.0 ,                   0.0 ,  0.0 ,0.0 , 407.292931887006    ,1.0                ,0.0 ,-175.22968453153118 ,-352.41410111773024 ,-2.1284379170758045     ,-175.55697147751232 ,          0.0 ,          0.0 ,-175.20305579006884 ,-352.44073645656647 ,-175.55697147751232 ,-703.200806452196   ,102.22634363818726   ,234.40027146624175  ,177.0612262698657    ,-198.3116627246338    ,-375.4961727134591  ,-2.1284379170758045     ,-198.63899239866342 ,          0.0 ,          0.0 ,-198.28507671121994  ,-375.52271464966907 ,-198.63899239866342 ,-772.44683443413    ,102.22634363818726   ,257.4822923873929    ,177.0612262698657    ,-2.677448518059646e-06  ,-2.4862804870636387e-05 ,2.680664503758665e-06   ,      0.0 ,      0.0 ,      0.0 ,-2.595365884690859e-06  ,-2.4944886465014543e-05 ,      0.0 ,-2.7540251504181038e-05 ,1.3721054557823526e-05 ,0.8396931212553891   ,0.42439787148780805     ,-0.0034599796950062676  ,-0.000891659598235571   ,0.0029659549620065957  ,-8.338818784253057     ,0.0 ,-14.740253808726179   ,-14.740253808726179     ,        0.0 ,        0.0 , 0.0
 0.0 ,0.0 ,           0.0 ,            0.0 ,            0.0 ,            0.0 ,              0.0 ,                   0.0 ,  94.0 ,101.5496 ,-21.0     ,           0.0 ,           0.0 ,       0.0 ,-24.56561      ,-18.54344   ,-0.001386709     ,-0.0004836192    ,                 0.0 ,             0.0 ,             0.0 ,                 0.0 ,                 0.0 ,        0.0 ,1.5511193452503655     ,            0.0 ,            0.0 ,            0.0 ,              0.0 ,                   0.0 ,  0.0 ,0.0 , 410.42625961632626  ,1.0                ,0.0 ,-175.65702585095815 ,-352.8438786142202  ,-1.8475687046532436     ,-175.85242565262556 ,          0.0 ,          0.0 ,-175.6369408789549  ,-352.8640026974544  ,-175.85242565262556 ,-704.3533190074015  ,102.2600036162801    ,234.78443966913383  ,177.119503429366     ,-198.9903857973335    ,-376.17724389416344 ,-1.8475687046532436     ,-199.1857909325688  ,          0.0 ,          0.0 ,-198.97030615889813  ,-376.1973679773977  ,-199.1857909325688  ,-774.3534650688646  ,102.2600036162801    ,258.117804949077     ,177.119503429366     ,-3.007608817506373e-06  ,-2.3497096848165666e-05 ,2.7201542412064797e-06  ,      0.0 ,      0.0 ,      0.0 ,-2.9144583037763974e-06 ,-2.3590246139655705e-05 ,      0.0 ,-2.6504709292290398e-05 ,1.2868684463772523e-05 ,0.79622562228404     ,0.4981453518674734      ,-0.004479557308116749   ,-0.000675714499003584   ,0.0043923168365721825  ,-17.165586600420532    ,0.0 ,-6.164871223743216    ,-6.164871223743216      ,        0.0 ,        0.0 , 0.0
 0.0 ,0.0 ,           0.0 ,            0.0 ,            0.0 ,            0.0 ,              0.0 ,                   0.0 ,  95.0 ,103.5038 ,-21.0     ,           0.0 ,           0.0 ,       0.0 ,-24.70301      ,-18.5297    ,-0.002314979     ,-0.0004557439    ,                 0.0 ,             0.0 ,             0.0 ,                 0.0 ,                 0.0 ,        0.0 ,3.449900937835388      ,            0.0 ,            0.0 ,            0.0 ,              0.0 ,                   0.0 ,  0.0 ,0.0 , 414.6594680811121   ,1.0                ,0.0 ,-175.59749697413235 ,-352.11552477694624 ,-1.5760548752411745     ,-175.77245920860273 ,          0.0 ,          0.0 ,-175.5828089976492  ,-352.1301173677783  ,-175.77245920860273 ,-703.485430564124   ,101.87496845784      ,234.4951435213747   ,176.4526259475717    ,-200.21286074469415   ,-376.73093432871633 ,-1.5760548752411745     ,-200.3878687603728  ,          0.0 ,          0.0 ,-200.19821854941932  ,-376.74552691954847 ,-200.3878687603728  ,-777.3316638337833  ,101.87496845784      ,259.1105530731448    ,176.4526259475717    ,-1.6401471582506762e-06 ,-1.3990993882781434e-05 ,1.184075963201076e-06   ,      0.0 ,      0.0 ,      0.0 ,-1.5920002651190845e-06 ,-1.4039139018829948e-05 ,      0.0 ,-1.563113965309695e-05  ,7.692032024736011e-06  ,0.9826337038515051   ,0.03567742152170642     ,-0.004790914913806868   ,-0.00025748907060025    ,0.011359197273198257   ,-23.038650482433678    ,0.0 ,-1.5761983913208957   ,-1.5761983913208957     ,        0.0 ,        0.0 , 0.0
 0.0 ,0.0 ,           0.0 ,            0.0 ,            0.0 ,            0.0 ,              0.0 ,                   0.0 ,  96.0 ,105.458  ,-21.0     ,           0.0 ,           0.0 ,       0.0 ,-24.86628      ,-18.51337   ,-0.002756838     ,-0.0003145876    ,                 0.0 ,             0.0 ,             0.0 ,                 0.0 ,                 0.0 ,        0.0 ,2.489532234488431      ,            0.0 ,            0.0 ,            0.0 ,              0.0 ,                   0.0 ,  0.0 ,0.0 , 419.097184979644    ,1.0                ,0.0 ,-175.43069261494009 ,-351.1353054654809  ,-1.1981849682590358     ,-175.66024118526013 ,          0.0 ,          0.0 ,-175.42215025708856 ,-351.14379887010904 ,-175.66024118526013 ,-702.226139265681   ,101.38437815986899   ,234.0753620431159   ,175.60290000460873   ,-201.22236553750793   ,-376.9269742049388  ,-1.1981849682590358     ,-201.45190992471805 ,          0.0 ,          0.0 ,-201.21382317965634  ,-376.9354717926768  ,-201.45190992471805 ,-779.6012496671648  ,101.38437815986899   ,259.86708391890716   ,175.60290000460873   ,-2.6608047346100984e-06 ,-1.7907203596505428e-05 ,2.269493047773665e-06   ,      0.0 ,      0.0 ,      0.0 ,-2.4311361543193195e-06 ,-1.8136869806026023e-05 ,      0.0 ,-2.056800964002072e-05  ,9.850569860751109e-06  ,0.8236266223770883   ,0.45588107745635903     ,-0.009533121633697511   ,-0.0026150778896331553  ,0.013581749713177636   ,-9.778139158612941     ,0.0 ,-16.007986487386933   ,-16.007986487386933     ,        0.0 ,        0.0 , 0.0
 0.0 ,0.0 ,           0.0 ,            0.0 ,            0.0 ,            0.0 ,              0.0 ,                   0.0 ,  97.0 ,107.4122 ,-21.0     ,           0.0 ,           0.0 ,       0.0 ,-25.06042      ,-18.49396   ,-0.002291994     ,-0.0001701765    ,                 0.0 ,             0.0 ,             0.0 ,                 0.0 ,                 0.0 ,        0.0 ,2.4447435575286547     ,            0.0 ,            0.0 ,            0.0 ,              0.0 ,                   0.0 ,  0.0 ,0.0 , 423.2289198980026   ,1.0                ,0.0 ,-175.50875622499623 ,-351.1379407362796  ,-0.9715687905220666     ,-175.7815978991435  ,          0.0 ,          0.0 ,-175.5032134861902  ,-351.14348347508565 ,-175.7815978991435  ,-702.4282470720617  ,101.32584754735666   ,234.14274920890105  ,175.50148842059014   ,-201.6004241921394    ,-377.2295609150651  ,-0.9715687905220666     ,-201.87316973492997 ,          0.0 ,          0.0 ,-201.59488145333336  ,-377.23515144222876 ,-201.87316973492997 ,-780.7031548421346  ,101.32584754735666   ,260.23436883304515   ,175.50148842059014   ,-2.746463301085578e-06  ,-1.9151375393408636e-05 ,1.9548869141198576e-06  ,      0.0 ,      0.0 ,      0.0 ,-2.63052767293367e-06   ,-1.9267309558940114e-05 ,      0.0 ,-2.189783519462362e-05  ,1.0450481853132234e-05 ,0.9855246199313532   ,0.01683893062932335     ,-0.01086978891124434    ,-0.0002586246473314262  ,0.024315094743216133   ,-24.833785171372035    ,0.0 ,-1.2574293925334747   ,-1.2574293925334747     ,        0.0 ,        0.0 , 0.0
 0.0 ,0.0 ,           0.0 ,            0.0 ,            0.0 ,            0.0 ,              0.0 ,                   0.0 ,  98.0 ,109.3664 ,-21.0     ,           0.0 ,           0.0 ,       0.0 ,-25.29026      ,-18.47097   ,-0.001429205     ,-0.0001089752    ,                 0.0 ,             0.0 ,             0.0 ,                 0.0 ,                 0.0 ,        0.0 ,2.478777603990885      ,            0.0 ,            0.0 ,            0.0 ,              0.0 ,                   0.0 ,  0.0 ,0.0 , 424.12888073272853  ,1.0                ,0.0 ,-175.50930756130276 ,-351.11255463400653 ,-0.8637610899770094     ,-175.8144650956389  ,          0.0 ,          0.0 ,-175.50507993290313 ,-351.11683401244375 ,-175.8144650956389  ,-702.436327290948   ,101.30040436418653   ,234.14547570161574  ,175.457446009064     ,-201.97740077487092   ,-377.58064784757465 ,-0.8637610899770094     ,-202.28245849530796 ,          0.0 ,          0.0 ,-201.97312139643364  ,-377.5848754759743  ,-202.28245849530796 ,-781.8404553677159  ,101.30040436418653   ,260.61346910128486   ,175.457446009064     ,-2.5398321128680167e-06 ,-1.8770068663516203e-05 ,-5.81863307868131e-07   ,      0.0 ,      0.0 ,      0.0 ,-2.4482877106307224e-06 ,-1.8861612409644563e-05 ,      0.0 ,-2.130990213849091e-05  ,1.0257456309568503e-05 ,0.8044051028007079   ,0.5037068517856582      ,-0.016634097117250477   ,-0.009209209415480401   ,0.017010555151314492   ,-8.390281524890469     ,0.0 ,-18.064181794461092   ,-18.064181794461092     ,        0.0 ,        0.0 , 0.0
 0.0 ,0.0 ,           0.0 ,            0.0 ,            0.0 ,            0.0 ,              0.0 ,                   0.0 ,  99.0 ,111.3206 ,-21.0     ,           0.0 ,           0.0 ,       0.0 ,-25.55912      ,-18.44409   ,-0.0005174805    ,-0.0001164096    ,                 0.0 ,             0.0 ,             0.0 ,                 0.0 ,                 0.0 ,        0.0 ,1.254611172582703      ,            0.0 ,            0.0 ,            0.0 ,              0.0 ,                   0.0 ,  0.0 ,0.0 , 612.12416012382     ,1.0                ,0.0 ,-175.91017762311307 ,-352.0086396137391  ,-0.6200627451046617     ,-175.86955688742634 ,          0.0 ,          0.0 ,-175.90731362038474 ,-352.0115254682456  ,-175.86955688742634 ,-703.7883741242786  ,101.68471148354672   ,234.5961241109585   ,176.12311385752133   ,-201.14845561902413   ,-377.2469176096502  ,-0.6200627451046617     ,-201.1077857790389  ,          0.0 ,          0.0 ,-201.14554251199732  ,-377.24975435985823 ,-201.1077857790389  ,-779.5031099034148  ,101.68471148354672   ,259.83435300257105   ,176.12311385752133   ,-3.391749078894925e-06  ,-3.388314998932725e-05  ,1.5405995126348775e-06  ,      0.0 ,      0.0 ,      0.0 ,-3.2770409188116775e-06 ,-3.39978568407919e-05   ,      0.0 ,-3.727490026882592e-05  ,1.876231210012923e-05  ,0.6506440365405508   ,0.760694673624551       ,-0.015193315010900441   ,-0.012784150742921219   ,0.0035429046976139526  ,1.1061622995456264     ,0.0 ,-26.038725898878816   ,-26.038725898878816     ,        0.0 ,        0.0 , 0.0
 0.0 ,0.0 ,           0.0 ,            0.0 ,            0.0 ,            0.0 ,              0.0 ,                   0.0 , 100.0 ,113.2748 ,-21.0     ,           0.0 ,           0.0 ,       0.0 ,-25.86512      ,-18.41349   ,0.0003301774     ,-9.387808e-05    ,                 0.0 ,             0.0 ,             0.0 ,                 0.0 ,                 0.0 ,        0.0 ,2.0174817251975385     ,            0.0 ,            0.0 ,            0.0 ,              0.0 ,                   0.0 ,  0.0 ,0.0 , 418.95576394018235  ,0.9999999999999999 ,0.0 ,-175.00110526224145 ,-351.1424406957312  ,-0.591363344582338      ,-175.69184883379015 ,          0.0 ,          0.0 ,-174.99897633488106 ,-351.14447089508224 ,-175.69184883379015 ,-701.8353947917628  ,101.49884725037757   ,233.94511500995128  ,175.80118960810117   ,-202.00641146618844   ,-378.1477468996782  ,-0.591363344582338      ,-202.69715503773716 ,          0.0 ,          0.0 ,-202.00433150492836  ,-378.1497770990292  ,-202.69715503773716 ,-782.8513134036039  ,101.49884725037757   ,260.9504212138982    ,175.80118960810117   ,4.751117901010928e-07   ,-3.152436110322879e-05  ,2.929136755972861e-06   ,      0.0 ,      0.0 ,      0.0 ,9.485436489847508e-07   ,-3.199779178466455e-05  ,      0.0 ,-3.104924910930521e-05  ,1.957243553862882e-05  ,0.8138078553705962   ,0.464390801640845       ,-0.04633220456595397    ,-0.007408946138977944   ,0.05172876504465043    ,-10.643017655268574    ,0.0 ,-16.352310696004718   ,-16.352310696004718     ,        0.0 ,        0.0 , 0.0
 0.0 ,0.0 ,           0.0 ,            0.0 ,            0.0 ,            0.0 ,              0.0 ,                   0.0 , 101.0 ,115.229  ,-21.0     ,           0.0 ,           0.0 ,       0.0 ,-26.19207      ,-18.38079   ,0.001173241      ,-0.0001388206    ,                 0.0 ,             0.0 ,             0.0 ,                 0.0 ,                 0.0 ,        0.0 ,2.0076940188724013     ,            0.0 ,            0.0 ,            0.0 ,              0.0 ,                   0.0 ,  0.0 ,0.0 , 418.6601822145505   ,1.0                ,0.0 ,-174.9057304650351  ,-351.10192288949867 ,-0.5734034890247542     ,-175.59466626135747 ,          0.0 ,          0.0 ,-174.90375172558404 ,-351.1038527673467  ,-175.59466626135747 ,-701.6022694928929  ,101.5309705265346    ,233.86740645663147  ,175.85677026900268   ,-202.20384803640755   ,-378.400040460871   ,-0.5734034890247542     ,-202.8927838327299  ,          0.0 ,          0.0 ,-202.20191815855938  ,-378.4019703387192  ,-202.8927838327299  ,-783.4966222070101  ,101.5309705265346    ,261.1655240280039    ,175.85677026900268   ,3.602365371614837e-06   ,-3.214543671292982e-05  ,2.849047751616456e-06   ,      0.0 ,      0.0 ,      0.0 ,4.048438899503772e-06   ,-3.2591507062177775e-05 ,      0.0 ,-2.8543072135714595e-05 ,2.0786204244076354e-05 ,1.0                  ,-0.041330837010754816   ,-0.05799769437186316    ,0.0                     ,0.07179536727743692    ,-27.298127242153143    ,0.0 ,0.0                   ,0.0                     ,        0.0 ,        0.0 , 0.0
 0.0 ,0.0 ,           0.0 ,            0.0 ,            0.0 ,            0.0 ,              0.0 ,                   0.0 , 102.0 ,117.1832 ,-21.0     ,           0.0 ,           0.0 ,       0.0 ,-26.48064      ,-18.35194   ,0.001684352      ,-0.0001783558    ,                 0.0 ,             0.0 ,             0.0 ,                 0.0 ,                 0.0 ,        0.0 ,0.5165016553620826     ,            0.0 ,            0.0 ,            0.0 ,              0.0 ,                   0.0 ,  0.0 ,0.0 , 415.7914591712752   ,1.0                ,0.0 ,-175.6351104167366  ,-352.6291190955848  ,-0.5771048407684672     ,-175.87037480344247 ,          0.0 ,          0.0 ,-175.63312128582245 ,-352.6310587929276  ,-175.87037480344247 ,-704.1345541105809  ,102.12149011073859   ,234.7115014222145   ,176.87955809677493   ,-201.25472923019657   ,-378.24878734261614 ,-0.5771048407684672     ,-201.48999361690238 ,          0.0 ,          0.0 ,-201.2527895328538   ,-378.2507270399589  ,-201.48999361690238 ,-780.9934599845321  ,102.12149011073859   ,260.33112023567446   ,176.87955809677493   ,9.555157864314348e-07   ,-3.182565803854288e-05  ,4.572259995037906e-06   ,      0.0 ,      0.0 ,      0.0 ,1.114603262174708e-06   ,-3.198474202521054e-05  ,      0.0 ,-3.0870142775838015e-05 ,1.8797113848036707e-05 ,0.7977026991630702   ,0.48609378418635807     ,-0.03069770416136687    ,-0.04500341876715367    ,0.02051977696657771    ,-16.857133727854645    ,0.0 ,-8.71594934818766     ,-8.71594934818766       ,        0.0 ,        0.0 , 0.0
 0.0 ,0.0 ,           0.0 ,            0.0 ,            0.0 ,            0.0 ,              0.0 ,                   0.0 , 103.0 ,119.1374 ,-21.0     ,           0.0 ,           0.0 ,       0.0 ,-26.55867      ,-18.34413   ,0.001505194      ,-0.000119944     ,                 0.0 ,             0.0 ,             0.0 ,                 0.0 ,                 0.0 ,        0.0 ,1.0300226667155532     ,            0.0 ,            0.0 ,            0.0 ,              0.0 ,                   0.0 ,  0.0 ,0.0 , 415.2609423061328   ,1.0                ,0.0 ,-174.8466971765919  ,-351.56709124994336 ,-0.7850422033077599     ,-175.53163667126046 ,          0.0 ,          0.0 ,-174.8431687522526  ,-351.57057031085407 ,-175.53163667126046 ,-701.9454250977958  ,101.83553391178123   ,233.981825244789    ,176.3842858586859    ,-201.81702714481304   ,-378.5374208095837  ,-0.7850422033077599     ,-202.50196663948157 ,          0.0 ,          0.0 ,-201.81349831189303  ,-378.5409496425038  ,-202.50196663948157 ,-782.8564643658877  ,101.83553391178123   ,260.95215521301014   ,176.3842858586859    ,1.1304969243786307e-05  ,-1.4862922796941538e-05 ,-3.8099497943439226e-06 ,      0.0 ,      0.0 ,      0.0 ,1.1461417499423187e-05  ,-1.5019371113097756e-05 ,      0.0 ,-3.5579541027490437e-06 ,1.3294291159204975e-05 ,0.7979897447969224   ,0.5119790658330583      ,-0.07684647839234335    ,-0.044939562082896914   ,0.0675156196049342     ,-18.220268227535225    ,0.0 ,-8.703582029420062    ,-8.703582029420062      ,        0.0 ,        0.0 , 0.0
 0.0 ,0.0 ,           0.0 ,            0.0 ,            0.0 ,            0.0 ,              0.0 ,                   0.0 , 104.0 ,121.0916 ,-21.0     ,           0.0 ,           0.0 ,       0.0 ,-25.99999      ,-18.4       ,-0.002529058     ,-7.27482e-05     ,                 0.0 ,             0.0 ,             0.0 ,                 0.0 ,                 0.0 ,        0.0 ,1.7553369123119442     ,            0.0 ,            0.0 ,            0.0 ,              0.0 ,                   0.0 ,  0.0 ,0.0 , 604.312095258174    ,1.0                ,0.0 ,-175.1178378950553  ,-351.90197875170713 ,-0.6357086169277046     ,-175.66246387410368 ,          0.0 ,          0.0 ,-175.11546350337437 ,-351.90437827262906 ,-175.66246387410368 ,-702.6823056501071  ,101.9116672332077    ,234.2274191754634   ,176.51617830781987   ,-201.45487576853967   ,-378.23899068705    ,-0.6357086169277046     ,-201.99950174758806 ,          0.0 ,          0.0 ,-201.4524503094763   ,-378.24136655056367 ,-201.99950174758806 ,-781.6933445457696  ,101.9116672332077    ,260.56448151525655   ,176.51617830781987   ,2.146337740194463e-05   ,-2.7633768823207007e-05 ,-4.196657242544828e-06  ,      0.0 ,      0.0 ,      0.0 ,2.159179375850524e-05   ,-2.7762185179767617e-05 ,      0.0 ,-6.1703936644657785e-06 ,2.477438708061357e-05  ,0.713806977246654    ,0.7481581673865438      ,-0.0021881899224975923  ,-0.09849948008517027    ,0.034902544869209906   ,-9.231968082637225     ,0.0 ,-16.969586027600066   ,-16.97091104948406      ,        0.0 ,        0.0 , 0.0
 0.0 ,0.0 ,           0.0 ,            0.0 ,            0.0 ,            0.0 ,              0.0 ,                   0.0 , 105.0 ,123.0458 ,-21.0     ,           0.0 ,           0.0 ,       0.0 ,-23.74914      ,-18.62509   ,-0.02121908      ,-7.905212e-05    ,                 0.0 ,             0.0 ,             0.0 ,                 0.0 ,                 0.0 ,        0.0 ,1.4915023886875651     ,            0.0 ,            0.0 ,            0.0 ,              0.0 ,                   0.0 ,  0.0 ,0.0 , 604.6849374452911   ,1.0                ,0.0 ,-176.4190728310141  ,-353.03880704321773 ,-0.3117736361341672     ,-176.35178182763434 ,          0.0 ,          0.0 ,-176.41831447838678 ,-353.03959134830234 ,-176.35178182763434 ,-705.8096876543234  ,101.99188977109212   ,235.26989570891556  ,176.65510784184465   ,-201.10057538143678   ,-377.72033390497154 ,-0.3117736361341672     ,-201.0333086893881  ,          0.0 ,          0.0 ,-201.09986512389492  ,-377.7210679462677  ,-201.0333086893881  ,-779.8542417595506  ,101.99188977109212   ,259.95142257066937   ,176.65510784184465   ,1.0662705513630536e-05  ,-1.3252225305385576e-05 ,-2.9184827947993026e-07 ,      0.0 ,      0.0 ,      0.0 ,1.0709484267014507e-05  ,-1.3299004058769548e-05 ,      0.0 ,-2.5895220454198863e-06 ,1.2032883848841029e-05 ,0.8026887176457254   ,0.5794419839592904      ,-0.008801773043830854   ,-0.10284700738144723    ,0.07915458399152449    ,-15.306996687898366    ,0.0 ,-9.255220149545455    ,-9.255220149545455      ,        0.0 ,        0.0 , 0.0
 0.0 ,0.0 ,           0.0 ,            0.0 ,            0.0 ,            0.0 ,              0.0 ,                   0.0 , 106.0 ,125.0    ,-21.0     ,           0.0 ,           0.0 ,       0.0 ,-20.0          ,-19.0       ,-428.856         ,-4.514115e-05    ,                 0.0 ,             0.0 ,             0.0 ,                 0.0 ,                 0.0 ,        0.0 ,0.0                    ,            0.0 ,            0.0 ,            0.0 ,              0.0 ,                   0.0 ,  0.0 ,0.0 ,  63.0526890076239   ,-19.13493555082592 ,0.0 ,-150.20647096360102 ,-301.8961131095082  ,-0.9660051654729485     ,-150.84806452398357 ,          0.0 ,          0.0 ,-149.69559048054901 ,-302.40699445125637 ,-150.84806452398357 ,-602.9506491411203  , 87.8937275420447    ,200.98354996185654  ,152.23640201469016   ,-195.62452991762592   ,-347.3141746533202  ,-0.9660051654729485     ,-196.26612436533654 ,          0.0 ,          0.0 ,-195.1136501735405   ,-347.8250543585413  ,-196.26612436533654 ,-739.204823850142   , 87.8937275420447    ,246.4016094143192    ,152.23640201469016   ,-2.1993138581648397e-07 ,-1.3757231431372854e-05 ,-8.025748206091332e-07  ,      0.0 ,      0.0 ,      0.0 ,9.084547298373262e-07   ,-1.488561759416882e-05  ,      0.0 ,-1.397716300294931e-05  ,9.053272662137981e-06  ,0.5732550085034905   ,0.2946648442233249      ,-0.005997995722761869   ,-0.0033391805167947105  ,0.006388475128528773   ,-3.1676430553497203    ,0.0 ,-3.973368943820623    ,-23.19387943808092      ,        0.0 ,        0.0 , 0.0
 0.0 ,0.0 ,           0.0 ,            0.0 ,            0.0 ,            0.0 ,              0.0 ,                   0.0 , 107.0 ,125.0    ,-19.0     ,           0.0 ,           0.0 ,       0.0 ,0.0            ,-19.0       ,-358.1168        ,0.0001202316     ,                 0.0 ,             0.0 ,             0.0 ,                 0.0 ,                 0.0 ,        0.0 ,0.0                    ,            0.0 ,            0.0 ,            0.0 ,              0.0 ,                   0.0 ,  0.0 ,0.0 ,  63.0526890076239   ,-19.13493555082592 ,0.0 ,-150.20647096360102 ,-301.8961131095082  ,-0.9660051654729485     ,-150.84806452398357 ,          0.0 ,          0.0 ,-149.69559048054901 ,-302.40699445125637 ,-150.84806452398357 ,-602.9506491411203  , 87.8937275420447    ,200.98354996185654  ,152.23640201469016   ,-195.62452991762592   ,-347.3141746533202  ,-0.9660051654729485     ,-196.26612436533654 ,          0.0 ,          0.0 ,-195.1136501735405   ,-347.8250543585413  ,-196.26612436533654 ,-739.204823850142   , 87.8937275420447    ,246.4016094143192    ,152.23640201469016   ,-2.1993138581648397e-07 ,-1.3757231431372854e-05 ,-8.025748206091332e-07  ,      0.0 ,      0.0 ,      0.0 ,9.084547298373262e-07   ,-1.488561759416882e-05  ,      0.0 ,-1.397716300294931e-05  ,9.053272662137981e-06  ,0.5732550085034905   ,0.2946648442233249      ,-0.005997995722761869   ,-0.0033391805167947105  ,0.006388475128528773   ,-3.1676430553497203    ,0.0 ,-3.973368943820623    ,-23.19387943808092      ,        0.0 ,        0.0 , 0.0
 0.0 ,0.0 ,           0.0 ,            0.0 ,            0.0 ,            0.0 ,              0.0 ,                   0.0 , 108.0 ,125.0    ,-17.0     ,           0.0 ,           0.0 ,       0.0 ,0.0            ,-17.0       ,-307.1702        ,0.0003509054     ,                 0.0 ,             0.0 ,             0.0 ,                 0.0 ,                 0.0 ,        0.0 ,0.0                    ,            0.0 ,            0.0 ,            0.0 ,              0.0 ,                   0.0 ,  0.0 ,0.0 ,  63.0526890076239   ,-19.13493555082592 ,0.0 ,-150.20647096360102 ,-301.8961131095082  ,-0.9660051654729485     ,-150.84806452398357 ,          0.0 ,          0.0 ,-149.69559048054901 ,-302.40699445125637 ,-150.84806452398357 ,-602.9506491411203  , 87.8937275420447    ,200.98354996185654  ,152.23640201469016   ,-195.62452991762592   ,-347.3141746533202  ,-0.9660051654729485     ,-196.26612436533654 ,          0.0 ,          0.0 ,-195.1136501735405   ,-347.8250543585413  ,-196.26612436533654 ,-739.204823850142   , 87.8937275420447    ,246.4016094143192    ,152.23640201469016   ,-2.1993138581648397e-07 ,-1.3757231431372854e-05 ,-8.025748206091332e-07  ,      0.0 ,      0.0 ,      0.0 ,9.084547298373262e-07   ,-1.488561759416882e-05  ,      0.0 ,-1.397716300294931e-05  ,9.053272662137981e-06  ,0.5732550085034905   ,0.2946648442233249      ,-0.005997995722761869   ,-0.0033391805167947105  ,0.006388475128528773   ,-3.1676430553497203    ,0.0 ,-3.973368943820623    ,-23.19387943808092      ,        0.0 ,        0.0 , 0.0
 0.0 ,0.0 ,           0.0 ,            0.0 ,            0.0 ,            0.0 ,              0.0 ,                   0.0 , 109.0 ,125.0    ,-15.0     ,           0.0 ,           0.0 ,       0.0 ,0.0            ,-15.0       ,-268.9217        ,-8.410927e-06    ,                 0.0 ,             0.0 ,             0.0 ,                 0.0 ,                 0.0 ,        0.0 ,0.0                    ,            0.0 ,            0.0 ,            0.0 ,              0.0 ,                   0.0 ,  0.0 ,0.0 ,  63.0526890076239   ,-19.13493555082592 ,0.0 ,-150.20647096360102 ,-301.8961131095082  ,-0.9660051654729485     ,-150.84806452398357 ,          0.0 ,          0.0 ,-149.69559048054901 ,-302.40699445125637 ,-150.84806452398357 ,-602.9506491411203  , 87.8937275420447    ,200.98354996185654  ,152.23640201469016   ,-195.62452991762592   ,-347.3141746533202  ,-0.9660051654729485     ,-196.26612436533654 ,          0.0 ,          0.0 ,-195.1136501735405   ,-347.8250543585413  ,-196.26612436533654 ,-739.204823850142   , 87.8937275420447    ,246.4016094143192    ,152.23640201469016   ,-2.1993138581648397e-07 ,-1.3757231431372854e-05 ,-8.025748206091332e-07  ,      0.0 ,      0.0 ,      0.0 ,9.084547298373262e-07   ,-1.488561759416882e-05  ,      0.0 ,-1.397716300294931e-05  ,9.053272662137981e-06  ,0.5732550085034905   ,0.2946648442233249      ,-0.005997995722761869   ,-0.0033391805167947105  ,0.006388475128528773   ,-3.1676430553497203    ,0.0 ,-3.973368943820623    ,-23.19387943808092      ,        0.0 ,        0.0 , 0.0
 0.0 ,0.0 ,           0.0 ,            0.0 ,            0.0 ,            0.0 ,              0.0 ,                   0.0 , 110.0 ,125.0    ,-13.0     ,           0.0 ,           0.0 ,       0.0 ,0.0            ,-13.0       ,-233.0113        ,7.671457e-05     ,                 0.0 ,             0.0 ,             0.0 ,                 0.0 ,                 0.0 ,        0.0 ,0.0                    ,            0.0 ,            0.0 ,            0.0 ,              0.0 ,                   0.0 ,  0.0 ,0.0 ,  63.0526890076239   ,-19.13493555082592 ,0.0 ,-150.20647096360102 ,-301.8961131095082  ,-0.9660051654729485     ,-150.84806452398357 ,          0.0 ,          0.0 ,-149.69559048054901 ,-302.40699445125637 ,-150.84806452398357 ,-602.9506491411203  , 87.8937275420447    ,200.98354996185654  ,152.23640201469016   ,-195.62452991762592   ,-347.3141746533202  ,-0.9660051654729485     ,-196.26612436533654 ,          0.0 ,          0.0 ,-195.1136501735405   ,-347.8250543585413  ,-196.26612436533654 ,-739.204823850142   , 87.8937275420447    ,246.4016094143192    ,152.23640201469016   ,-2.1993138581648397e-07 ,-1.3757231431372854e-05 ,-8.025748206091332e-07  ,      0.0 ,      0.0 ,      0.0 ,9.084547298373262e-07   ,-1.488561759416882e-05  ,      0.0 ,-1.397716300294931e-05  ,9.053272662137981e-06  ,0.5732550085034905   ,0.2946648442233249      ,-0.005997995722761869   ,-0.0033391805167947105  ,0.006388475128528773   ,-3.1676430553497203    ,0.0 ,-3.973368943820623    ,-23.19387943808092      ,        0.0 ,        0.0 , 0.0
 0.0 ,0.0 ,           0.0 ,            0.0 ,            0.0 ,            0.0 ,              0.0 ,                   0.0 , 111.0 ,125.0    ,-11.0     ,           0.0 ,           0.0 ,       0.0 ,0.0            ,-11.0       ,-197.5125        ,-8.484846e-05    ,                 0.0 ,             0.0 ,             0.0 ,                 0.0 ,                 0.0 ,        0.0 ,0.0                    ,            0.0 ,            0.0 ,            0.0 ,              0.0 ,                   0.0 ,  0.0 ,0.0 ,  63.0526890076239   ,-19.13493555082592 ,0.0 ,-150.20647096360102 ,-301.8961131095082  ,-0.9660051654729485     ,-150.84806452398357 ,          0.0 ,          0.0 ,-149.69559048054901 ,-302.40699445125637 ,-150.84806452398357 ,-602.9506491411203  , 87.8937275420447    ,200.98354996185654  ,152.23640201469016   ,-195.62452991762592   ,-347.3141746533202  ,-0.9660051654729485     ,-196.26612436533654 ,          0.0 ,          0.0 ,-195.1136501735405   ,-347.8250543585413  ,-196.26612436533654 ,-739.204823850142   , 87.8937275420447    ,246.4016094143192    ,152.23640201469016   ,-2.1993138581648397e-07 ,-1.3757231431372854e-05 ,-8.025748206091332e-07  ,      0.0 ,      0.0 ,      0.0 ,9.084547298373262e-07   ,-1.488561759416882e-05  ,      0.0 ,-1.397716300294931e-05  ,9.053272662137981e-06  ,0.5732550085034905   ,0.2946648442233249      ,-0.005997995722761869   ,-0.0033391805167947105  ,0.006388475128528773   ,-3.1676430553497203    ,0.0 ,-3.973368943820623    ,-23.19387943808092      ,        0.0 ,        0.0 , 0.0
 0.0 ,0.0 ,           0.0 ,            0.0 ,            0.0 ,            0.0 ,              0.0 ,                   0.0 , 112.0 ,125.0    ,-9.0      ,           0.0 ,           0.0 ,       0.0 ,0.0            ,-9.0        ,-161.0342        ,-0.0003996493    ,                 0.0 ,             0.0 ,             0.0 ,                 0.0 ,                 0.0 ,        0.0 ,0.0                    ,            0.0 ,            0.0 ,            0.0 ,              0.0 ,                   0.0 ,  0.0 ,0.0 ,  63.0526890076239   ,-19.13493555082592 ,0.0 ,-150.20647096360102 ,-301.8961131095082  ,-0.9660051654729485     ,-150.84806452398357 ,          0.0 ,          0.0 ,-149.69559048054901 ,-302.40699445125637 ,-150.84806452398357 ,-602.9506491411203  , 87.8937275420447    ,200.98354996185654  ,152.23640201469016   ,-195.62452991762592   ,-347.3141746533202  ,-0.9660051654729485     ,-196.26612436533654 ,          0.0 ,          0.0 ,-195.1136501735405   ,-347.8250543585413  ,-196.26612436533654 ,-739.204823850142   , 87.8937275420447    ,246.4016094143192    ,152.23640201469016   ,-2.1993138581648397e-07 ,-1.3757231431372854e-05 ,-8.025748206091332e-07  ,      0.0 ,      0.0 ,      0.0 ,9.084547298373262e-07   ,-1.488561759416882e-05  ,      0.0 ,-1.397716300294931e-05  ,9.053272662137981e-06  ,0.5732550085034905   ,0.2946648442233249      ,-0.005997995722761869   ,-0.0033391805167947105  ,0.006388475128528773   ,-3.1676430553497203    ,0.0 ,-3.973368943820623    ,-23.19387943808092      ,        0.0 ,        0.0 , 0.0
 0.0 ,0.0 ,           0.0 ,            0.0 ,            0.0 ,            0.0 ,              0.0 ,                   0.0 , 113.0 ,125.0    ,-7.0      ,           0.0 ,           0.0 ,       0.0 ,0.0            ,-7.0        ,-125.6579        ,-0.0002759375    ,                 0.0 ,             0.0 ,             0.0 ,                 0.0 ,                 0.0 ,        0.0 ,0.0                    ,            0.0 ,            0.0 ,            0.0 ,              0.0 ,                   0.0 ,  0.0 ,0.0 ,  63.0526890076239   ,-19.13493555082592 ,0.0 ,-150.20647096360102 ,-301.8961131095082  ,-0.9660051654729485     ,-150.84806452398357 ,          0.0 ,          0.0 ,-149.69559048054901 ,-302.40699445125637 ,-150.84806452398357 ,-602.9506491411203  , 87.8937275420447    ,200.98354996185654  ,152.23640201469016   ,-195.62452991762592   ,-347.3141746533202  ,-0.9660051654729485     ,-196.26612436533654 ,          0.0 ,          0.0 ,-195.1136501735405   ,-347.8250543585413  ,-196.26612436533654 ,-739.204823850142   , 87.8937275420447    ,246.4016094143192    ,152.23640201469016   ,-2.1993138581648397e-07 ,-1.3757231431372854e-05 ,-8.025748206091332e-07  ,      0.0 ,      0.0 ,      0.0 ,9.084547298373262e-07   ,-1.488561759416882e-05  ,      0.0 ,-1.397716300294931e-05  ,9.053272662137981e-06  ,0.5732550085034905   ,0.2946648442233249      ,-0.005997995722761869   ,-0.0033391805167947105  ,0.006388475128528773   ,-3.1676430553497203    ,0.0 ,-3.973368943820623    ,-23.19387943808092      ,        0.0 ,        0.0 , 0.0
 0.0 ,0.0 ,           0.0 ,            0.0 ,            0.0 ,            0.0 ,              0.0 ,                   0.0 , 114.0 ,125.0    ,-5.0      ,           0.0 ,           0.0 ,       0.0 ,0.0            ,-5.0        ,-85.02473        ,0.0002845734     ,                 0.0 ,             0.0 ,             0.0 ,                 0.0 ,                 0.0 ,        0.0 ,0.0                    ,            0.0 ,            0.0 ,            0.0 ,              0.0 ,                   0.0 ,  0.0 ,0.0 ,  63.0526890076239   ,-19.13493555082592 ,0.0 ,-150.20647096360102 ,-301.8961131095082  ,-0.9660051654729485     ,-150.84806452398357 ,          0.0 ,          0.0 ,-149.69559048054901 ,-302.40699445125637 ,-150.84806452398357 ,-602.9506491411203  , 87.8937275420447    ,200.98354996185654  ,152.23640201469016   ,-195.62452991762592   ,-347.3141746533202  ,-0.9660051654729485     ,-196.26612436533654 ,          0.0 ,          0.0 ,-195.1136501735405   ,-347.8250543585413  ,-196.26612436533654 ,-739.204823850142   , 87.8937275420447    ,246.4016094143192    ,152.23640201469016   ,-2.1993138581648397e-07 ,-1.3757231431372854e-05 ,-8.025748206091332e-07  ,      0.0 ,      0.0 ,      0.0 ,9.084547298373262e-07   ,-1.488561759416882e-05  ,      0.0 ,-1.397716300294931e-05  ,9.053272662137981e-06  ,0.5732550085034905   ,0.2946648442233249      ,-0.005997995722761869   ,-0.0033391805167947105  ,0.006388475128528773   ,-3.1676430553497203    ,0.0 ,-3.973368943820623    ,-23.19387943808092      ,        0.0 ,        0.0 , 0.0
 0.0 ,0.0 ,           0.0 ,            0.0 ,            0.0 ,            0.0 ,              0.0 ,                   0.0 , 115.0 ,123.0769 ,-5.179487 ,           0.0 ,           0.0 ,       0.0 ,3.178246       ,-5.497312   ,0.008423366      ,0.0001355974     ,                 0.0 ,             0.0 ,             0.0 ,                 0.0 ,                 0.0 ,        0.0 ,1.5210535369773566     ,            0.0 ,            0.0 ,            0.0 ,              0.0 ,                   0.0 ,  0.0 ,0.0 , 316.6228347277893   ,1.0                ,0.0 ,-48.81023252336708  ,-97.81708660708605  ,0.2786980368815511      ,-48.860431532915    ,          0.0 ,          0.0 ,-48.79558149023366  ,-97.83170863477122  ,-48.860431532915    ,-195.48773005757002 , 28.293787204064355  , 65.1625736706969   , 49.00628146460607   ,-45.23539206068155    ,-94.24223371349412  ,0.2786980368815511      ,-45.28559107022947  ,          0.0 ,          0.0 ,-45.22074102754814   ,-94.25685574117928  ,-45.28559107022947  ,-184.76319152149057 , 28.293787204064355  , 61.58773853092596   , 49.00628146460607   ,7.207136652088935e-06   ,-1.4241023545145391e-05 ,-3.726146747624218e-06  ,      0.0 ,      0.0 ,      0.0 ,1.1807030034003481e-05  ,-1.8840916205022836e-05 ,      0.0 ,-7.033891094040022e-06  ,1.6059501340061865e-05 ,0.6012914789198667   ,-0.048303797322954395   ,-0.2781428529279772     ,-0.047055289516738895   ,0.2991285057208749     ,6.627837866528067      ,0.0 ,-0.03598654975760958  ,-0.03598654975760958    ,        0.0 ,        0.0 , 0.0
 0.0 ,0.0 ,           0.0 ,            0.0 ,            0.0 ,            0.0 ,              0.0 ,                   0.0 , 116.0 ,121.1538 ,-5.358974 ,           0.0 ,           0.0 ,       0.0 ,9.290575       ,-6.288032   ,0.00580355       ,-0.002304053     ,                 0.0 ,             0.0 ,             0.0 ,                 0.0 ,                 0.0 ,        0.0 ,0.2458263767675537     ,            0.0 ,            0.0 ,            0.0 ,              0.0 ,                   0.0 ,  0.0 ,0.0 , 286.361693795893    ,1.0                ,0.0 ,-50.42639349845422  ,-99.44267876831032  ,-0.13834417973306312    ,-49.91461265614671  ,          0.0 ,          0.0 ,-50.419403539484186 ,-99.44967282438662  ,-49.91461265614671  ,-199.7836593564023  , 28.455069979908085  , 66.5945580907687   , 49.28562397864653   ,-46.22217952022319    ,-95.23845659711421  ,-0.13834417973306312    ,-45.710398677915684 ,          0.0 ,          0.0 ,-46.215189561253155  ,-95.24544556909431  ,-45.710398677915684 ,-187.1710592281204  , 28.455069979908085  , 62.39034411253768   , 49.28562397864653   ,5.080820677736133e-07   ,8.967877331881303e-08   ,-1.4530231730063534e-06 ,      0.0 ,      0.0 ,      0.0 ,1.0549122723588354e-06  ,-4.5715175903491154e-07 ,      0.0 ,5.977608410924263e-07   ,7.754747925749846e-07  ,0.49615372151482845  ,-0.011014547285550104   ,-0.14977857367332278    ,-0.01744446245558009    ,0.15042099668684858    ,9.319951938375308      ,0.0 ,0.7245181804139685    ,0.35663654931755684     ,        0.0 ,        0.0 , 0.0
 0.0 ,0.0 ,           0.0 ,            0.0 ,            0.0 ,            0.0 ,              0.0 ,                   0.0 , 117.0 ,119.2308 ,-5.538462 ,           0.0 ,           0.0 ,       0.0 ,17.66556       ,-7.305018   ,0.0007282657     ,0.002247477      ,                 0.0 ,             0.0 ,             0.0 ,                 0.0 ,                 0.0 ,        0.0 ,1.3360030115113717     ,            0.0 ,            0.0 ,            0.0 ,              0.0 ,                   0.0 ,  0.0 ,0.0 , 301.63020169720676  ,1.0                ,0.0 ,-52.681519452818264 ,-103.08307489690239 ,0.00963625772214255     ,-52.0077599219701   ,          0.0 ,          0.0 ,-52.67850875702978  ,-103.08610561586383 ,-52.0077599219701   ,-207.7723242948637  , 29.298836062232407  , 69.25745297188135  , 50.7470753994928    ,-47.99915411901047    ,-98.40070754390509  ,0.00963625772214255     ,-47.32539458816231  ,          0.0 ,          0.0 ,-47.996143423221994  ,-98.40373826286653  ,-47.32539458816231  ,-193.72523428880572 , 29.298836062232407  , 64.57508561888406   , 50.7470753994928    ,3.5889416414398767e-06  ,-4.7283651402783535e-07 ,-7.1694738643407095e-06 ,      0.0 ,      0.0 ,      0.0 ,6.261961711257096e-06   ,-3.145858185698891e-06  ,      0.0 ,3.1161048581867735e-06  ,4.80049492393806e-06   ,0.45187985693264177  ,0.3143267094368826      ,-0.04588515251818987    ,-0.08823006630657013    ,0.0                    ,0.09956213705473842    ,0.0 ,18.714246377161405    ,4.682362936190201       ,        0.0 ,        0.0 , 0.0
 0.0 ,0.0 ,           0.0 ,            0.0 ,            0.0 ,            0.0 ,              0.0 ,                   0.0 , 118.0 ,117.3077 ,-5.717949 ,           0.0 ,           0.0 ,       0.0 ,27.46753       ,-8.464702   ,-0.006401218     ,-5.592173e-05    ,                 0.0 ,             0.0 ,             0.0 ,                 0.0 ,                 0.0 ,        0.0 ,1.6674264671303267     ,            0.0 ,            0.0 ,            0.0 ,              0.0 ,                   0.0 ,  0.0 ,0.0 , 400.9569221476612   ,1.0                ,0.0 ,-53.98544776967701  ,-107.14021691177737 ,0.36405174605479873     ,-53.68650003414527  ,          0.0 ,          0.0 ,-53.98294560339188  ,-107.1427190780625  ,-53.68650003414527  ,-214.81212630815048 , 30.778049790236537  , 71.60404680625474  , 53.30914813630473   ,-49.02916318205472    ,-102.18392470158432 ,0.36405174605479873     ,-48.730215446522976 ,          0.0 ,          0.0 ,-49.02666101576958   ,-102.18642686786947 ,-48.730215446522976 ,-199.94327095273275 , 30.778049790236537  , 66.64776039233712   , 53.30914813630473   ,1.1646030739940803e-05  ,-9.327414100434069e-06  ,-3.5502060952298264e-06 ,      0.0 ,      0.0 ,      0.0 ,1.1848059860915011e-05  ,-9.5294490176837e-06    ,      0.0 ,2.3186133046538003e-06  ,1.0709829156693963e-05 ,0.25620703120773614  ,0.07126379121771814     ,-0.0013576798532827215  ,-0.0011867093305189846  ,0.00042363759847810056 ,31.24283277040788      ,0.0 ,12.437970313237269    ,2.070533017913028       ,        0.0 ,        0.0 , 0.0
 0.0 ,0.0 ,           0.0 ,            0.0 ,            0.0 ,            0.0 ,              0.0 ,                   0.0 , 119.0 ,115.3846 ,-5.897436 ,           0.0 ,           0.0 ,       0.0 ,39.39462       ,-9.836898   ,-0.008025157     ,-0.0005951138    ,                 0.0 ,             0.0 ,             0.0 ,                 0.0 ,                 0.0 ,        0.0 ,2.4956680020388253     ,            0.0 ,            0.0 ,            0.0 ,              0.0 ,                   0.0 ,  0.0 ,0.0 , 402.34704335920736  ,1.0                ,0.0 ,-56.45852565950681  ,-109.86084784953789 ,-0.1325056644025418     ,-55.509062412229646 ,          0.0 ,          0.0 ,-56.45415942601044  ,-109.86521160469425 ,-55.509062412229646 ,-221.82846863951826 , 31.1156069833468    , 73.94281816137487  , 53.8938126401804    ,-51.52886496801959    ,-104.93120992569416 ,-0.1325056644025418     ,-50.57940172074243  ,          0.0 ,          0.0 ,-51.52450415378663   ,-104.9355682615871  ,-50.57940172074243  ,-207.0394490061562  , 31.1156069833468    , 69.01315213726423   , 53.8938126401804    ,7.911185271101579e-06   ,-2.9045260221692474e-06 ,-5.7380446320726425e-06 ,      0.0 ,      0.0 ,      0.0 ,1.454367118911195e-05   ,-9.53701862582093e-06   ,      0.0 ,5.00665500109833e-06    ,1.2145603344244857e-05 ,0.1867549693107925   ,0.07407327001731027     ,-0.00913855869209388    ,-0.015549811550860848   ,0.0003144087064825699  ,44.62526171268786      ,0.0 ,3.946496240533074     ,1.1822596356089738      ,        0.0 ,        0.0 , 0.0
 0.0 ,0.0 ,           0.0 ,            0.0 ,            0.0 ,            0.0 ,              0.0 ,                   0.0 , 120.0 ,113.4615 ,-6.076923 ,           0.0 ,           0.0 ,       0.0 ,52.91805       ,-11.36873   ,-0.005274016     ,0.0001652889     ,                 0.0 ,             0.0 ,             0.0 ,                 0.0 ,                 0.0 ,        0.0 ,1.1956324803785088     ,            0.0 ,            0.0 ,            0.0 ,              0.0 ,                   0.0 ,  0.0 ,0.0 , 400.8025893167955   ,1.0                ,0.0 ,-58.07215917731044  ,-114.22416556785839 ,0.08035733054990218     ,-57.336844233739946 ,          0.0 ,          0.0 ,-58.07145804141623  ,-114.22488153929835 ,-57.336844233739946 ,-229.6331773049298  , 32.634442348146656  , 76.5443836068971   , 56.5245130092553    ,-53.08705522833869    ,-109.2390713685257  ,0.08035733054990218     ,-52.35174556376469  ,          0.0 ,          0.0 ,-53.0863615781267    ,-109.23976526909863 ,-52.35174556376469  ,-214.67786333388617 , 32.634442348146656  , 71.5592924798752    , 56.5245130092553    ,4.547623839493982e-06   ,-3.755365446607775e-06  ,-1.1703583359906129e-06 ,      0.0 ,      0.0 ,      0.0 ,4.621130900230687e-06   ,-3.828874272693062e-06  ,      0.0 ,7.922575604982716e-07   ,4.234930434467035e-06  ,0.07705735373667223  ,-0.00024969435664355617 ,-0.0002549914597159264  ,0.0                     ,0.0003648396651851723  ,64.84336226589917      ,0.0 ,0.0                   ,0.0                     ,        0.0 ,        0.0 , 0.0
 0.0 ,0.0 ,           0.0 ,            0.0 ,            0.0 ,            0.0 ,              0.0 ,                   0.0 , 121.0 ,111.5385 ,-6.25641  ,           0.0 ,           0.0 ,       0.0 ,66.87988       ,-12.9444    ,-0.005027569     ,1.585618e-05     ,                 0.0 ,             0.0 ,             0.0 ,                 0.0 ,                 0.0 ,        0.0 ,1.2936892460478486     ,            0.0 ,            0.0 ,            0.0 ,              0.0 ,                   0.0 ,  0.0 ,0.0 , 399.09692787883034  ,1.0                ,0.0 ,-59.7780710448351   ,-117.57450051246721 ,0.2065060770825226      ,-58.99561751414886  ,          0.0 ,          0.0 ,-59.77670676784568  ,-117.5758576603094  ,-58.99561751414886  ,-236.34818263828646 , 33.59812637292702   , 78.78272800857604  , 58.193659809762835  ,-54.79366390174761    ,-112.59007276484321 ,0.2065060770825226      ,-54.01121254593161  ,          0.0 ,          0.0 ,-54.79229653038003   ,-112.59145764636912 ,-54.01121254593161  ,-221.39495176840376 , 33.59812637292702   , 73.7983077050707    , 58.193659809762835  ,2.9432172815076086e-06  ,-1.4452290422648459e-06 ,2.619901001207919e-06   ,      0.0 ,      0.0 ,      0.0 ,3.908195128031182e-06   ,-2.410206583172011e-06  ,      0.0 ,1.4979879156990756e-06  ,3.2037333086811424e-06 ,0.39027410485730374  ,0.06160968703839764     ,-0.0002918229208765794  ,-0.00017368214572901082 ,0.00010092176513353573 ,13.870863283926331     ,0.0 ,49.86736008148537     ,3.9002971602522605      ,        0.0 ,        0.0 , 0.0
 0.0 ,0.0 ,           0.0 ,            0.0 ,            0.0 ,            0.0 ,              0.0 ,                   0.0 , 122.0 ,109.6154 ,-6.435897 ,           0.0 ,           0.0 ,       0.0 ,79.6582        ,-14.40172   ,-0.00479974      ,0.0001616058     ,                 0.0 ,             0.0 ,             0.0 ,                 0.0 ,                 0.0 ,        0.0 ,3.3578076847157816     ,            0.0 ,            0.0 ,            0.0 ,              0.0 ,                   0.0 ,  0.0 ,0.0 , 398.87308582936214  ,1.0                ,0.0 ,-62.00936434217569  ,-120.70720472245247 ,0.17222122971977571     ,-60.738672574772465 ,          0.0 ,          0.0 ,-62.008198995853554 ,-120.708364130383   ,-60.738672574772465 ,-243.45525126690666 , 34.263383078298226  , 81.15173305323077  , 59.34592141808785   ,-57.020543397758765   ,-115.71837676394472 ,0.17222122971977571     ,-55.749851630355536 ,          0.0 ,          0.0 ,-57.019375910795574  ,-115.71954679746963 ,-55.749851630355536 ,-228.4887641523738  , 34.263383078298226  , 76.16292738818433   , 59.34592141808785   ,-2.7936245692316113e-06 ,8.333191553657944e-08   ,-1.1855723705205664e-07 ,      0.0 ,      0.0 ,      0.0 ,1.3921722370751394e-06  ,-4.1024651319185834e-06 ,      0.0 ,-2.7102929007891346e-06 ,2.9646931484726434e-06 ,0.3597463355775456   ,0.047767123599450685    ,-0.00024703292444430957 ,-0.00013563626359059018 ,9.325717930762203e-05  ,17.876137052802584     ,0.0 ,59.85394422549487     ,3.718760202244436       ,        0.0 ,        0.0 , 0.0
 0.0 ,0.0 ,           0.0 ,            0.0 ,            0.0 ,            0.0 ,              0.0 ,                   0.0 , 123.0 ,107.6923 ,-6.615385 ,           0.0 ,           0.0 ,       0.0 ,90.05731       ,-15.62112   ,-0.004718853     ,0.0001558693     ,                 0.0 ,             0.0 ,             0.0 ,                 0.0 ,                 0.0 ,        0.0 ,2.8954167932278514     ,            0.0 ,            0.0 ,            0.0 ,              0.0 ,                   0.0 ,  0.0 ,0.0 , 284.6202215764542   ,1.0                ,0.0 ,-63.727703287305786 ,-123.79772603499578 ,0.22562383027496108     ,-62.309792703248405 ,          0.0 ,          0.0 ,-63.726802360908835 ,-123.79861086392013 ,-62.309792703248405 ,-249.83523599693137 , 35.09893485641028   , 83.2784004280699   , 60.79313785141866   ,-58.73804863718167    ,-118.80804542510717 ,0.22562383027496108     ,-57.32013805312428  ,          0.0 ,          0.0 ,-58.73714771078471   ,-118.80894244897674 ,-57.32013805312428  ,-234.86622296003446 , 35.09893485641028   , 78.2887407951593    , 60.79313785141866   ,-4.948742785808454e-08  ,-2.5202619460927935e-07 ,1.9732299661228275e-06  ,      0.0 ,      0.0 ,      0.0 ,2.5808646788682665e-06  ,-2.882377992942931e-06  ,      0.0 ,-3.0151321913168946e-07 ,2.894666004195616e-06  ,0.25495392671652156  ,0.026638169937177596    ,-0.00014154756476063537 ,-6.730141951848096e-05  ,0.0001259666584574647  ,37.378015008825116     ,0.0 ,42.07359475562686     ,2.3698060828826724      ,        0.0 ,        0.0 , 0.0
 0.0 ,0.0 ,           0.0 ,            0.0 ,            0.0 ,            0.0 ,              0.0 ,                   0.0 , 124.0 ,105.7692 ,-6.794872 ,           0.0 ,           0.0 ,       0.0 ,97.63          ,-16.55787   ,-0.0044204       ,0.0001120008     ,                 0.0 ,             0.0 ,             0.0 ,                 0.0 ,                 0.0 ,        0.0 ,2.0259624106555894     ,            0.0 ,            0.0 ,            0.0 ,              0.0 ,                   0.0 ,  0.0 ,0.0 , 281.55414838738443  ,1.0                ,0.0 ,-65.96114044576896  ,-126.98315402516162 ,-0.05048861723075632    ,-64.03687587356275  ,          0.0 ,          0.0 ,-65.96026299374105  ,-126.98399625073317 ,-64.03687587356275  ,-256.98113373432807 , 35.8024370920197    , 85.6603817419124   , 62.01164103137208   ,-60.96765927983318    ,-121.98964322655019 ,-0.05048861723075632    ,-59.04339977253301  ,          0.0 ,          0.0 ,-60.96678689271129   ,-121.99053480306145 ,-59.04339977253301  ,-242.00075198755397 , 35.8024370920197    , 80.66690564088266   , 62.01164103137208   ,-1.6832298431543806e-06 ,-3.521496966274783e-07  ,-6.420695266567773e-07  ,      0.0 ,      0.0 ,      0.0 ,-2.787669576077003e-07  ,-1.7566122276307368e-06 ,      0.0 ,-2.035379590430919e-06  ,9.440539121924702e-07  ,0.05104922443342889  ,-4.6678961851241066e-05 ,-5.115245876033323e-05  ,0.0                     ,7.00028094730172e-05   ,97.88462750782965      ,0.0 ,0.0                   ,0.0                     ,        0.0 ,        0.0 , 0.0
 0.0 ,0.0 ,           0.0 ,            0.0 ,            0.0 ,            0.0 ,              0.0 ,                   0.0 , 125.0 ,103.8462 ,-6.974359 ,           0.0 ,           0.0 ,       0.0 ,102.574        ,-17.23175   ,-0.004011814     ,9.504982e-05     ,                 0.0 ,             0.0 ,             0.0 ,                 0.0 ,                 0.0 ,        0.0 ,0.533281079752134      ,            0.0 ,            0.0 ,            0.0 ,              0.0 ,                   0.0 ,  0.0 ,0.0 , 277.8381175396409   ,1.0                ,0.0 ,-67.40330744245358  ,-129.94220212404844 ,-0.09597360017639736    ,-65.46483837422775  ,          0.0 ,          0.0 ,-67.40281512580506  ,-129.94261619437816 ,-65.46483837422775  ,-262.8102898578512  , 36.6815333373782    , 87.60345344939063  , 63.53427601903873   ,-62.40976771983489    ,-124.94864274017087 ,-0.09597360017639736    ,-60.47129348619204  ,          0.0 ,          0.0 ,-62.40927023776936   ,-124.94915513656272 ,-60.47129348619204  ,-247.8297091953117  , 36.6815333373782    , 82.6098930651039    , 63.53427601903873   ,2.479318208427727e-07   ,-2.826787791770442e-08  ,7.496330646262231e-07   ,      0.0 ,      0.0 ,      0.0 ,5.105647975166867e-07   ,-2.9090088558412056e-07 ,      0.0 ,2.1966391193256622e-07  ,4.057368345188749e-07  ,0.2820138169617257   ,0.02812487029842868     ,-4.193346952505194e-05  ,-3.138270282618609e-05  ,2.3905532096579436e-05 ,51.86506917821134      ,0.0 ,47.333464064228465    ,2.578872666314707       ,        0.0 ,        0.0 , 0.0
 0.0 ,0.0 ,           0.0 ,            0.0 ,            0.0 ,            0.0 ,              0.0 ,                   0.0 , 126.0 ,101.9231 ,-7.153846 ,           0.0 ,           0.0 ,       0.0 ,105.4161       ,-17.69546   ,-0.003555547     ,-3.044225e-05    ,                 0.0 ,             0.0 ,             0.0 ,                 0.0 ,                 0.0 ,        0.0 ,1.9980907225115363     ,            0.0 ,            0.0 ,            0.0 ,              0.0 ,                   0.0 ,  0.0 ,0.0 , 273.7325186198563   ,1.0                ,0.0 ,-69.14829778231585  ,-132.80440949289147 ,-0.22018010775669278    ,-67.0111229415691   ,          0.0 ,          0.0 ,-69.1471613881446   ,-132.80556250040968 ,-67.0111229415691   ,-268.96385268155984 , 37.388011148167095  , 89.65463200364485  , 64.75793811393693   ,-64.15523995139002    ,-127.81134259571108 ,-0.22018010775669278    ,-62.018059833195366 ,          0.0 ,          0.0 ,-64.154103538126     ,-127.81250115218717 ,-62.018059833195366 ,-253.9846628970067  , 37.388011148167095  , 84.66154780457231   , 64.75793811393693   ,2.630134736260884e-06   ,-6.916821191322275e-07  ,4.009217689538244e-06   ,      0.0 ,      0.0 ,      0.0 ,3.5806366206138883e-06  ,-1.6421840035997885e-06 ,      0.0 ,1.9384525644305486e-06  ,2.671820066544705e-06  ,0.0534673102960201   ,5.558162284691103e-05   ,-4.393671309736635e-05  ,-1.1599893661538917e-07 ,6.568485570092627e-05  ,94.95502498594355      ,0.0 ,0.17495725362417772   ,0.009532209147689728    ,        0.0 ,        0.0 , 0.0
 0.0 ,0.0 ,           0.0 ,            0.0 ,            0.0 ,            0.0 ,              0.0 ,                   0.0 , 127.0 ,100.0    ,-7.333333 ,           0.0 ,           0.0 ,       0.0 ,106.7261       ,-18.00594   ,-0.005256995     ,-0.0001019023    ,                 0.0 ,             0.0 ,             0.0 ,                 0.0 ,                 0.0 ,        0.0 ,2.222937011213849      ,            0.0 ,            0.0 ,            0.0 ,              0.0 ,                   0.0 ,  0.0 ,0.0 , 197.63200694395084  ,1.0                ,0.0 ,-71.8788482896473   ,-135.82567116900583 ,-0.5929750945143687     ,-68.79061793401952  ,          0.0 ,          0.0 ,-71.87299030213353  ,-135.83152728947064 ,-68.79061793401952  ,-276.4951123478629  , 37.849327269039925  , 92.1650626082639   , 65.5569578111528    ,-66.88525107500674    ,-130.83206576152713 ,-0.5929750945143687     ,-63.79701611659907  ,          0.0 ,          0.0 ,-66.87939085812286   ,-130.83794561608988 ,-63.79701611659907  ,-261.5143369055123  , 37.849327269039925  , 87.17144589998418   , 65.5569578111528    ,2.829541248943363e-06   ,-1.0486716245601338e-06 ,2.2892792299943356e-06  ,      0.0 ,      0.0 ,      0.0 ,3.247343001976373e-06   ,-1.4664733775931434e-06 ,      0.0 ,1.7808693847603271e-06  ,2.4132054557609583e-06 ,0.3762569859825016   ,0.03705651430587372     ,-2.8628567784283583e-05 ,-1.8882721174181906e-05 ,1.5784587277585744e-05 ,21.53041241857719      ,0.0 ,80.39691074913516     ,3.8086900036291738      ,        0.0 ,        0.0 , 0.0
 0.0 ,0.0 ,           0.0 ,            0.0 ,            0.0 ,            0.0 ,              0.0 ,                   0.0 , 128.0 ,98.07692 ,-7.512821 ,           0.0 ,           0.0 ,       0.0 ,106.9796       ,-18.21078   ,-0.01073391      ,-0.0001583566    ,                 0.0 ,             0.0 ,             0.0 ,                 0.0 ,                 0.0 ,        0.0 ,2.966645793691971      ,            0.0 ,            0.0 ,            0.0 ,              0.0 ,                   0.0 ,  0.0 ,0.0 , 265.47772034189796  ,1.0                ,0.0 ,-73.05878716450334  ,-139.1070728702976  ,-1.03903264085603       ,-70.34948790470179  ,          0.0 ,          0.0 ,-73.04064527422561  ,-139.1252447208791  ,-70.34948790470179  ,-282.5153468991804  , 38.9578278230609    , 94.17179186582234  , 67.47693510562269   ,-68.06464162701711    ,-134.11293377420634 ,-1.03903264085603       ,-65.35534236721557  ,          0.0 ,          0.0 ,-68.0465042562744    ,-134.13110562478784 ,-65.35534236721557  ,-267.53292333702746 , 38.9578278230609    , 89.17764724956986   , 67.47693510562269   ,-3.021923300092884e-07  ,-3.7109281433193624e-07 ,8.029646595680019e-07   ,      0.0 ,      0.0 ,      0.0 ,1.174970980187749e-06   ,-1.848256214919674e-06  ,      0.0 ,-6.73285745222459e-07   ,1.6582123604729294e-06 ,0.2951767497529172   ,0.029090481988588133    ,-1.6944411992591165e-05 ,-1.6566794951422937e-05 ,4.077944355390577e-06  ,53.71817534652536      ,0.0 ,51.549107246501656    ,2.7363686556202342      ,        0.0 ,        0.0 , 0.0
 0.0 ,0.0 ,           0.0 ,            0.0 ,            0.0 ,            0.0 ,              0.0 ,                   0.0 , 129.0 ,96.15385 ,-7.692308 ,           0.0 ,           0.0 ,       0.0 ,106.5296       ,-18.34526   ,-0.0160434       ,-6.260871e-05    ,                 0.0 ,             0.0 ,             0.0 ,                 0.0 ,                 0.0 ,        0.0 ,1.8806016766907723     ,            0.0 ,            0.0 ,            0.0 ,              0.0 ,                   0.0 ,  0.0 ,0.0 , 271.9252924660614   ,1.0                ,0.0 ,-74.71085604244955  ,-141.9979400311396  ,-1.7707533012271448     ,-71.83536061584948  ,          0.0 ,          0.0 ,-74.66333545728116  ,-142.04550528470654 ,-71.83536061584948  ,-288.544169500651   , 39.74899823331036   , 96.18140264288415  , 68.847286528917     ,-69.71648204485224    ,-137.0035667408861  ,-1.7707533012271448     ,-66.84098661825217  ,          0.0 ,          0.0 ,-69.66896612808239   ,-137.05107911984715 ,-66.84098661825217  ,-273.56104918848166 , 39.74899823331036   , 91.18703868942772   , 68.847286528917     ,-1.3261802297180058e-06 ,-1.222419184559038e-07  ,-3.9335221942973953e-07 ,      0.0 ,      0.0 ,      0.0 ,-6.36293818037956e-08   ,-1.3847928597380847e-06 ,      0.0 ,-1.4484225683297776e-06 ,7.861557203152827e-07  ,0.04920214963449493  ,0.00022451928128199461  ,-6.507987399778762e-06  ,-4.6328148916360096e-08 ,8.372665258672833e-06  ,106.53672714167855     ,0.0 ,0.42333288921521467   ,0.022040508083829926    ,        0.0 ,        0.0 , 0.0
 0.0 ,0.0 ,           0.0 ,            0.0 ,            0.0 ,            0.0 ,              0.0 ,                   0.0 , 130.0 ,94.23077 ,-7.871795 ,           0.0 ,           0.0 ,       0.0 ,105.625        ,-18.4343    ,-0.02060642      ,-0.0006761941    ,                 0.0 ,             0.0 ,             0.0 ,                 0.0 ,                 0.0 ,        0.0 ,1.5037318472238588     ,            0.0 ,            0.0 ,            0.0 ,              0.0 ,                   0.0 ,  0.0 ,0.0 , 283.4708935060415   ,1.0                ,0.0 ,-75.31749203378824  ,-144.78841437013165 ,-2.512466255846741      ,-73.05495672244062  ,          0.0 ,          0.0 ,-75.22341329347607  ,-144.88253668200747 ,-73.05495672244062  ,-293.16086399947613 , 40.86884793387769   , 97.72030128340076  , 70.78692527434471   ,-70.32328494066518    ,-139.79421830620564 ,-2.512466255846741      ,-68.06074482271747  ,          0.0 ,          0.0 ,-70.22920139375292   ,-139.88824267647553 ,-68.06074482271747  ,-278.178221566515   , 40.86884793387769   , 92.72609814864114   , 70.78692527434471   ,1.7634153098725395e-06  ,-7.945809304641702e-07  ,2.1528011580277176e-06  ,      0.0 ,      0.0 ,      0.0 ,2.1560853083820547e-06  ,-1.1872509289736857e-06 ,      0.0 ,9.68834379408369e-07    ,1.694902780693275e-06  ,0.28097305437879494  ,0.02323159109221939     ,-4.963548006426293e-06  ,-1.7780835283079106e-06 ,3.7624647310145195e-06 ,46.166420035684695     ,0.0 ,58.61185190642474     ,2.6065483578496123      ,        0.0 ,        0.0 , 0.0
 0.0 ,0.0 ,           0.0 ,            0.0 ,            0.0 ,            0.0 ,              0.0 ,                   0.0 , 131.0 ,92.30769 ,-8.051282 ,           0.0 ,           0.0 ,       0.0 ,104.4221       ,-18.49349   ,-0.03023672      ,-0.0007027993    ,                 0.0 ,             0.0 ,             0.0 ,                 0.0 ,                 0.0 ,        0.0 ,3.4636403864463303     ,            0.0 ,            0.0 ,            0.0 ,              0.0 ,                   0.0 ,  0.0 ,0.0 , 285.5688331963582   ,1.0                ,0.0 ,-76.02953096089814  ,-148.38251628934805 ,-3.9123876930069605     ,-74.61758301408524  ,          0.0 ,          0.0 ,-75.81178307461239  ,-148.60025838969977 ,-74.61758301408524  ,-299.0296392191194  , 42.37642761227673   , 99.67656005772619  , 73.3981280179084    ,-71.03540716995079    ,-143.38838734850611 ,-3.9123876930069605     ,-69.62345439126304  ,          0.0 ,          0.0 ,-70.8176544517902    ,-143.6060811301093  ,-69.62345439126304  ,-284.04720567300893 , 42.37642761227673   , 94.68242628500943   , 73.3981280179084    ,1.624676648601689e-07   ,-8.923101190656269e-07  ,1.6780570387784867e-06  ,      0.0 ,      0.0 ,      0.0 ,1.987793302530243e-06   ,-2.7176355981471383e-06 ,      0.0 ,-7.298420513898722e-07  ,2.5185475913986434e-06 ,0.5043457434703511   ,0.04825669731659319     ,-2.9737097216565166e-06 ,-3.2240534734301312e-06 ,0.0                    ,4.4091244781296425e-06 ,0.0 ,104.40370039372951    ,4.994125157358753       ,        0.0 ,        0.0 , 0.0
 0.0 ,0.0 ,           0.0 ,            0.0 ,            0.0 ,            0.0 ,              0.0 ,                   0.0 , 132.0 ,90.38462 ,-8.230769 ,           0.0 ,           0.0 ,       0.0 ,103.0206       ,-18.53283   ,-0.04586573      ,-2.823353e-05    ,                 0.0 ,             0.0 ,             0.0 ,                 0.0 ,                 0.0 ,        0.0 ,1.6592380819169525     ,            0.0 ,            0.0 ,            0.0 ,              0.0 ,                   0.0 ,  0.0 ,0.0 , 213.06463653847715  ,1.0                ,0.0 ,-76.42435128442783  ,-153.10625869013677 ,-5.070098616563095      ,-76.53385223062412  ,          0.0 ,          0.0 ,-76.07871901266643  ,-153.45184610656707 ,-76.53385223062412  ,-306.06443099502985 , 44.54696501827108   ,102.02147009393201  , 77.15760292463513   ,-71.43049662870146    ,-148.11237324734861 ,-5.070098616563095      ,-71.53999757489775  ,          0.0 ,          0.0 ,-71.08485907851181   ,-148.4580134480614  ,-71.53999757489775  ,-291.08285016795116 , 44.54696501827108   , 97.02763743542633   , 77.15760292463513   ,-1.8848900858342782e-06 ,3.365781195751606e-07   ,2.7992822746136007e-07  ,      0.0 ,      0.0 ,      0.0 ,4.09549827864945e-07    ,-1.9578615492103976e-06 ,      0.0 ,-1.548311634411501e-06  ,1.2790998429287568e-06 ,0.26002128741895425  ,0.020826705245772903    ,-2.96569873859795e-06   ,-1.2106797188389358e-06 ,2.168038392358868e-06  ,49.31033412104234      ,0.0 ,55.20540549589762     ,2.3584134452495205      ,        0.0 ,        0.0 , 0.0
 0.0 ,0.0 ,           0.0 ,            0.0 ,            0.0 ,            0.0 ,              0.0 ,                   0.0 , 133.0 ,88.46154 ,-8.410256 ,           0.0 ,           0.0 ,       0.0 ,101.4945       ,-18.5597    ,-0.06136432      ,-0.002532406     ,                 0.0 ,             0.0 ,             0.0 ,                 0.0 ,                 0.0 ,        0.0 ,1.5157574403699994     ,            0.0 ,            0.0 ,            0.0 ,              0.0 ,                   0.0 ,  0.0 ,0.0 , 291.587633312382    ,1.0                ,0.0 ,-76.52846746184217  ,-156.76174868309866 ,-4.988525108334547      ,-78.01684258955969  ,          0.0 ,          0.0 ,-76.20652745403075  ,-157.08366009217048 ,-78.01684258955969  ,-311.3070551034129  , 46.18228323186353   ,103.76900254292309  , 79.99005674464239   ,-71.53454355154722    ,-151.76779574496177 ,-4.988525108334547      ,-73.02291867926473  ,          0.0 ,          0.0 ,-71.2125987772792    ,-152.08975481859963 ,-73.02291867926473  ,-296.32524402953726 , 46.18228323186353   , 98.77510246491114   , 79.99005674464239   ,-1.4648233263364462e-06 ,5.376397124958328e-07   ,1.8335918510228272e-06  ,      0.0 ,      0.0 ,      0.0 ,1.0392736324866158e-06  ,-1.966457198662663e-06  ,      0.0 ,-9.271836743782483e-07  ,1.5317953521032317e-06 ,0.30201740899210494  ,0.02362445197394355     ,-2.7370826378355138e-06 ,-1.1853412192822143e-06 ,1.9577534126725693e-06 ,44.5275671517122       ,0.0 ,57.92357421570677     ,2.6141036177112618      ,        0.0 ,        0.0 , 0.0
 0.0 ,0.0 ,           0.0 ,            0.0 ,            0.0 ,            0.0 ,              0.0 ,                   0.0 , 134.0 ,86.53846 ,-8.589744 ,           0.0 ,           0.0 ,       0.0 ,99.88844       ,-18.57859   ,-0.0813481       ,-0.002554213     ,                 0.0 ,             0.0 ,             0.0 ,                 0.0 ,                 0.0 ,        0.0 ,2.956614274882765      ,            0.0 ,            0.0 ,            0.0 ,              0.0 ,                   0.0 ,  0.0 ,0.0 , 291.1672792129214   ,1.0                ,0.0 ,-73.76465503727445  ,-161.31185383037553 ,-4.497541411006699      ,-79.32182249171842  ,          0.0 ,          0.0 ,-73.53368704046503  ,-161.54278825442935 ,-79.32182249171842  ,-314.3983134133839  , 49.24468021902214   ,104.79945373202273  , 85.294290052083     ,-68.77098311695437    ,-156.3181527201346  ,-4.497541411006699      ,-74.32815057139833  ,          0.0 ,          0.0 ,-68.54001511053903   ,-156.54913511899053 ,-74.32815057139833  ,-299.41730593620645 , 49.24468021902214   , 99.8057579203605    , 85.294290052083     ,-2.341764213521535e-06  ,5.051542977714657e-07   ,1.1911458502027242e-06  ,      0.0 ,      0.0 ,      0.0 ,1.045929964078198e-06   ,-2.8825397360959787e-06 ,      0.0 ,-1.8366099758760584e-06 ,2.056084795904121e-06  ,0.5735499733520192   ,0.04999003534639365     ,-1.6000607903655953e-06 ,-1.6366732911974922e-06 ,3.945482501764717e-09  ,0.08973919129206138    ,0.0 ,100.71843913820985    ,4.988875841697023       ,        0.0 ,        0.0 , 0.0
 0.0 ,0.0 ,           0.0 ,            0.0 ,            0.0 ,            0.0 ,              0.0 ,                   0.0 , 135.0 ,84.61538 ,-8.769231 ,           0.0 ,           0.0 ,       0.0 ,98.22932       ,-18.59216   ,-0.0742483       ,-0.0002392254    ,                 0.0 ,             0.0 ,             0.0 ,                 0.0 ,                 0.0 ,        0.0 ,3.048779255632131      ,            0.0 ,            0.0 ,            0.0 ,              0.0 ,                   0.0 ,  0.0 ,0.0 , 291.68489795506866  ,1.0                ,0.0 ,-74.92151470387779  ,-165.69246433725152 ,-3.9529761048392826     ,-81.34076806310057  ,          0.0 ,          0.0 ,-74.7389720209279   ,-165.87497093842478 ,-81.34076806310057  ,-321.9546838172795  , 50.82865902312481   ,107.31824586256359  , 88.0378205542633    ,-69.92797080371665    ,-160.69889568531835 ,-3.9529761048392826     ,-76.34722416293943  ,          0.0 ,          0.0 ,-69.74543238763403   ,-160.88144983308985 ,-76.34722416293943  ,-306.974077847041   , 50.82865902312481   ,102.32468294520706   , 88.0378205542633    ,-2.920005331731612e-06  ,5.469968574779471e-07   ,9.186025923333415e-07   ,      0.0 ,      0.0 ,      0.0 ,8.966226362479732e-07   ,-3.269630702065078e-06  ,      0.0 ,-2.3730081133637037e-06 ,2.2023304403711342e-06 ,0.5613254759166727   ,0.04840024367868337     ,-1.0667431149947125e-06 ,-9.769339167722333e-07  ,5.2221588699646816e-08 ,5.404978169767911      ,0.0 ,94.02826570419535     ,4.749173306863627       ,        0.0 ,        0.0 , 0.0
 0.0 ,0.0 ,           0.0 ,            0.0 ,            0.0 ,            0.0 ,              0.0 ,                   0.0 , 136.0 ,82.69231 ,-8.948718 ,           0.0 ,           0.0 ,       0.0 ,96.53623       ,-18.60234   ,-0.0369586       ,-0.002007882     ,                 0.0 ,             0.0 ,             0.0 ,                 0.0 ,                 0.0 ,        0.0 ,2.079897579925043      ,            0.0 ,            0.0 ,            0.0 ,              0.0 ,                   0.0 ,  0.0 ,0.0 , 274.08688290116135  ,1.0                ,0.0 ,-72.23194818530672  ,-169.75929677510072 ,-1.9692399069900615     ,-82.52911314272771  ,          0.0 ,          0.0 ,-72.17924456660282  ,-169.81199807168116 ,-82.52911314272771  ,-324.52031314700673 , 53.67865867199344   ,108.1734366254332   , 92.97417690066064   ,-67.23877289217003    ,-164.76609379114825 ,-1.9692399069900615     ,-77.53593705061522  ,          0.0 ,          0.0 ,-67.1860731935412    ,-164.8187950877287  ,-77.53593705061522  ,-309.54079383461595 , 53.67865867199344   ,103.18028318026492   , 92.97417690066064   ,-2.351316253338921e-06  ,6.18630484934765e-07    ,1.9653043536012567e-06  ,      0.0 ,      0.0 ,      0.0 ,9.934404927709402e-07   ,-2.7261263126206365e-06 ,      0.0 ,-1.7326854772713458e-06 ,1.9299375231546083e-06 ,0.5742962607522275   ,0.04736998105729625     ,-1.1794183969524774e-06 ,-9.516351554472688e-07  ,1.477071353929061e-07  ,6.9244386856481235     ,0.0 ,90.1309160332883      ,4.594350303759448       ,        0.0 ,        0.0 , 0.0
 0.0 ,0.0 ,           0.0 ,            0.0 ,            0.0 ,            0.0 ,              0.0 ,                   0.0 , 137.0 ,80.76923 ,-9.128205 ,           0.0 ,           0.0 ,       0.0 ,94.82163       ,-18.61037   ,0.02356779       ,-0.005782317     ,                 0.0 ,             0.0 ,             0.0 ,                 0.0 ,                 0.0 ,        0.0 ,1.1533806860637452     ,            0.0 ,            0.0 ,            0.0 ,              0.0 ,                   0.0 ,  0.0 ,0.0 , 271.93888236720653  ,1.0                ,0.0 ,-73.2107596793592   ,-173.55320010647944 ,-0.49817115725312267    ,-84.27697535654468  ,          0.0 ,          0.0 ,-73.20503152764059  ,-173.55894600449693 ,-84.27697535654468  ,-331.04090615977407 , 55.065873353456595  ,110.34696865209864  , 95.37690451185924   ,-68.21778422105776    ,-168.5601890693112  ,-0.49817115725312267    ,-79.28399989824322  ,          0.0 ,          0.0 ,-68.21205606933913   ,-168.5659349673287  ,-79.28399989824322  ,-316.0620205433963  , 55.065873353456595  ,105.35401907016043   , 95.37690451185924   ,-1.4965036744515397e-06 ,3.442259712626506e-07   ,4.352973012643062e-07   ,      0.0 ,      0.0 ,      0.0 ,3.6985975517543065e-07  ,-1.5221378952992162e-06 ,      0.0 ,-1.1522777052236706e-06 ,1.0029048691564645e-06 ,0.40207475199617104  ,0.03123350561218935     ,-7.712378814011127e-07  ,-5.181010155498496e-07  ,2.1012531795844012e-07 ,45.58092583639532      ,0.0 ,49.67853101459695     ,2.7773122389067355      ,        0.0 ,        0.0 , 0.0
 0.0 ,0.0 ,           0.0 ,            0.0 ,            0.0 ,            0.0 ,              0.0 ,                   0.0 , 138.0 ,78.84615 ,-9.307692 ,           0.0 ,           0.0 ,       0.0 ,93.09344       ,-18.61704   ,0.0599535        ,-0.01788947      ,                 0.0 ,             0.0 ,             0.0 ,                 0.0 ,                 0.0 ,        0.0 ,2.1054884118157577     ,            0.0 ,            0.0 ,            0.0 ,              0.0 ,                   0.0 ,  0.0 ,0.0 , 330.87470022013326  ,1.0                ,0.0 ,-75.2669938215542   ,-177.01546578168282 ,2.5361026865248477      ,-86.07267703648208  ,          0.0 ,          0.0 ,-75.16979418545694  ,-177.11266861488778 ,-86.07267703648208  ,-338.35510145838464 , 56.01545858150604   ,112.78501628680203  , 97.02161651073526   ,-70.27421096900554    ,-172.02267822031737 ,2.5361026865248477      ,-81.07989418393339  ,          0.0 ,          0.0 ,-70.17701133290825   ,-172.11988105352233 ,-81.07989418393339  ,-323.3767860193829  , 56.01545858150604   ,107.79223815876281   , 97.02161651073526   ,-1.9747875958258314e-06 ,3.3857327003519025e-07  ,1.575367448335355e-07   ,      0.0 ,      0.0 ,      0.0 ,3.417399815130199e-07   ,-1.9779546759602922e-06 ,      0.0 ,-1.6362146410646589e-06 ,1.25234109379559e-06   ,0.3857014666781289   ,0.030537099914208832    ,-4.317097332420424e-07  ,-1.125407660466883e-07  ,2.2376250029350187e-07 ,48.53913803675795      ,0.0 ,45.50748373530771     ,2.6333213587970756      ,        0.0 ,        0.0 , 0.0
 0.0 ,0.0 ,           0.0 ,            0.0 ,            0.0 ,            0.0 ,              0.0 ,                   0.0 , 139.0 ,76.92308 ,-9.487179 ,           0.0 ,           0.0 ,       0.0 ,91.35645       ,-18.62282   ,0.1178441        ,-0.002179539     ,                 0.0 ,             0.0 ,             0.0 ,                 0.0 ,                 0.0 ,        0.0 ,2.1463876513299285     ,            0.0 ,            0.0 ,            0.0 ,              0.0 ,                   0.0 ,  0.0 ,0.0 , 294.7551008761843   ,1.0                ,0.0 ,-75.63551938908012  ,-179.8332090830682  ,5.27729957759205        ,-87.18837646487971  ,          0.0 ,          0.0 ,-75.35013297272484  ,-180.11862968238813 ,-87.18837646487971  ,-342.657124139228   , 57.39152174137163   ,114.2190347893113   , 99.40501910321339   ,-70.64331631105242    ,-174.84103062537582 ,5.27729957759205        ,-82.196173386852    ,          0.0 ,          0.0 ,-70.35792989469712   ,-175.1263958998132  ,-82.196173386852    ,-327.6805334412684  , 57.39152174137163   ,109.2268538412366    , 99.40501910321339   ,-3.0174702001260544e-06 ,5.883271004910339e-07   ,1.2866309492231576e-06  ,      0.0 ,      0.0 ,      0.0 ,7.347287081696631e-07   ,-3.1638722975396257e-06 ,      0.0 ,-2.4291432791049043e-06 ,2.0721184817449355e-06 ,0.6387843116883845   ,0.05523921165170059     ,-7.602660763951405e-07  ,-2.837084033175093e-07  ,0.0                    ,8.1320771777214e-07    ,0.0 ,92.71210852868694     ,4.992204635123611       ,        0.0 ,        0.0 , 0.0
 0.0 ,0.0 ,           0.0 ,            0.0 ,            0.0 ,            0.0 ,              0.0 ,                   0.0 , 140.0 ,75.0     ,-9.666667 ,           0.0 ,           0.0 ,       0.0 ,89.61368       ,-18.62803   ,0.1279173        ,-0.0050157       ,                 0.0 ,             0.0 ,             0.0 ,                 0.0 ,                 0.0 ,        0.0 ,0.9270731657505551     ,            0.0 ,            0.0 ,            0.0 ,              0.0 ,                   0.0 ,  0.0 ,0.0 , 294.5237389002269   ,1.0                ,0.0 ,-81.0457729454082   ,-182.07839943458245 ,7.054743433693247       ,-89.06032022429675  ,          0.0 ,          0.0 ,-80.53524207281863  ,-182.58889372748797 ,-89.06032022429675  ,-352.1844645856252  , 56.63163370378149   ,117.39480282405471  , 98.08886033910431   ,-76.0540680238052     ,-177.08668344901076 ,7.054743433693247       ,-84.0686128355744   ,          0.0 ,          0.0 ,-75.5435346840963    ,-177.59718073064468 ,-84.0686128355744   ,-337.2093442888318  , 56.63163370378149   ,112.40310657543769   , 98.08886033910431   ,-1.3658848619604112e-06 ,3.101943233780759e-07   ,9.896444865286598e-07   ,      0.0 ,      0.0 ,      0.0 ,4.5922262889807675e-07  ,-1.5149133499063167e-06 ,      0.0 ,-1.0556906559608452e-06 ,1.033388807870673e-06  ,0.6091606039296907   ,0.056953453068166564    ,-6.355893176706074e-07  ,-1.741018496231916e-07  ,0.0                    ,6.620868383122827e-07  ,0.0 ,90.01979387857737     ,4.991706312212751       ,        0.0 ,        0.0 , 0.0
 0.0 ,0.0 ,           0.0 ,            0.0 ,            0.0 ,            0.0 ,              0.0 ,                   0.0 , 141.0 ,73.07692 ,-9.846154 ,           0.0 ,           0.0 ,       0.0 ,87.86669       ,-18.63282   ,0.0995845        ,-0.005503069     ,                 0.0 ,             0.0 ,             0.0 ,                 0.0 ,                 0.0 ,        0.0 ,1.0036665303577037     ,            0.0 ,            0.0 ,            0.0 ,              0.0 ,                   0.0 ,  0.0 ,0.0 , 332.3931060385525   ,1.0                ,0.0 ,-86.63193813393005  ,-184.4669829889299  ,7.394091606643855       ,-91.07174801018967  ,          0.0 ,          0.0 ,-86.07113267620768  ,-185.0277707175019  ,-91.07174801018967  ,-362.1706554791     , 55.766134527801356  ,120.72355078884928  , 96.58977621163604   ,-81.64013603056782    ,-179.47518123348823 ,7.394091606643855       ,-86.07995179496139  ,          0.0 ,          0.0 ,-81.07933057284546   ,-180.0359689620602  ,-86.07995179496139  ,-347.1952502127749  , 55.766134527801356  ,115.7317490334076    , 96.58977621163604   ,-1.4326401499209593e-06 ,3.5002145271769925e-07  ,1.8873309791068083e-06  ,      0.0 ,      0.0 ,      0.0 ,7.605958081298473e-07   ,-1.8432142111915586e-06 ,      0.0 ,-1.0826183961033008e-06 ,1.339300133890933e-06  ,0.32521626044026775  ,0.029931415709536297    ,-3.3988562690437647e-07 ,-4.680769198746236e-08  ,3.08029630504809e-07   ,49.872345773603385     ,0.0 ,38.536392518839314    ,2.3991900686324366      ,        0.0 ,        0.0 , 0.0
 0.0 ,0.0 ,           0.0 ,            0.0 ,            0.0 ,            0.0 ,              0.0 ,                   0.0 , 142.0 ,71.15385 ,-10.02564 ,           0.0 ,           0.0 ,       0.0 ,86.11677       ,-18.63732   ,0.06908759       ,-0.003302444     ,                 0.0 ,             0.0 ,             0.0 ,                 0.0 ,                 0.0 ,        0.0 ,1.512894574944693      ,            0.0 ,            0.0 ,            0.0 ,              0.0 ,                   0.0 ,  0.0 ,0.0 , 337.2866472798045   ,1.0                ,0.0 ,-91.95855274757554  ,-186.41588637246085 ,7.796534545134087       ,-92.87468812824707  ,          0.0 ,          0.0 ,-91.3089911393352   ,-187.06547375629174 ,-92.87468812824707  ,-371.24916328091393 , 54.843872547589065  ,123.74972195327632  , 94.99234715201213   ,-86.96692047241444    ,-181.42430396643798 ,7.796534545134087       ,-87.8830741744494   ,          0.0 ,          0.0 ,-86.31736257237476   ,-182.07384006081136 ,-87.8830741744494   ,-356.27426219447284 , 54.843872547589065  ,118.75808825779592   , 94.99234715201213   ,-2.5535053277267235e-06 ,5.873423877878437e-07   ,2.5535203220257896e-06  ,      0.0 ,      0.0 ,      0.0 ,1.0753625709506832e-06  ,-3.0415254595958476e-06 ,      0.0 ,-1.9661627950988383e-06 ,2.139904607640574e-06  ,0.301194803711832    ,0.027219075703127177    ,-3.764458239762138e-07  ,-4.445586707189204e-08  ,2.8948875124261184e-07 ,39.07879293353612      ,0.0 ,48.56217372824933     ,2.56082185115688        ,        0.0 ,        0.0 , 0.0
 0.0 ,0.0 ,           0.0 ,            0.0 ,            0.0 ,            0.0 ,              0.0 ,                   0.0 , 143.0 ,69.23077 ,-10.20513 ,           0.0 ,           0.0 ,       0.0 ,84.3642        ,-18.64155   ,0.04450557       ,-0.0004920457    ,                 0.0 ,             0.0 ,             0.0 ,                 0.0 ,                 0.0 ,        0.0 ,2.518708383218021      ,            0.0 ,            0.0 ,            0.0 ,              0.0 ,                   0.0 ,  0.0 ,0.0 , 418.6773133540938   ,1.0                ,0.0 ,-96.48936050030113  ,-187.36378562594732 ,7.781451035371226       ,-94.17299374532044  ,          0.0 ,          0.0 ,-95.76856707345964  ,-188.08464254164065 ,-94.17299374532044  ,-378.0261971102345  , 53.76933555437232   ,126.0087311228526   , 93.13121940808624   ,-91.4993836137658     ,-182.37385043764397 ,7.781451035371226       ,-89.18299433505271  ,          0.0 ,          0.0 ,-90.7785676631919    ,-183.0946073533373  ,-89.18299433505271  ,-363.05619528700106 , 53.76933555437232   ,121.01874780538756   , 93.13121940808624   ,-1.9530609198753317e-06 ,4.221146018649753e-07   ,3.552054018317488e-06   ,      0.0 ,      0.0 ,      0.0 ,1.4116238150695489e-06  ,-2.942570238989423e-06  ,      0.0 ,-1.5309464984743697e-06 ,2.2284505432763883e-06 ,0.2887314322583253   ,0.03363198182834116     ,-7.609003421088664e-07  ,-5.030157862282172e-08  ,4.7664450494353074e-07 ,48.07844277046052      ,0.0 ,36.58524490197318     ,2.400220816151573       ,        0.0 ,        0.0 , 0.0
 0.0 ,0.0 ,           0.0 ,            0.0 ,            0.0 ,            0.0 ,              0.0 ,                   0.0 , 144.0 ,67.30769 ,-10.38462 ,           0.0 ,           0.0 ,       0.0 ,82.6097        ,-18.64559   ,0.02132633       ,-0.0003714317    ,                 0.0 ,             0.0 ,             0.0 ,                 0.0 ,                 0.0 ,        0.0 ,2.05586943807119       ,            0.0 ,            0.0 ,            0.0 ,              0.0 ,                   0.0 ,  0.0 ,0.0 , 342.0081536360441   ,1.0                ,0.0 ,-101.17161440297903 ,-190.09823070761342 ,5.296140481157108       ,-96.25802034797648  ,          0.0 ,          0.0 ,-100.85277998186496 ,-190.4171010782292  ,-96.25802034797648  ,-387.52788669430225 , 53.11193481354641   ,129.17594483085102  , 91.99257265971767   ,-96.18094766361989    ,-185.107584848954   ,5.296140481157108       ,-91.26735360861734  ,          0.0 ,          0.0 ,-95.86211324250581   ,-185.42640420126605 ,-91.26735360861734  ,-372.5558957331292  , 53.11193481354641   ,124.18529897219156   , 91.99257265971767   ,-2.060410357981097e-06  ,3.6993797766368934e-07  ,2.69737796317787e-06    ,      0.0 ,      0.0 ,      0.0 ,1.1249460584115327e-06  ,-2.8154184961873497e-06 ,      0.0 ,-1.6904721987845629e-06 ,2.045093226344704e-06  ,0.28291765203897346  ,0.03251569729590581     ,-3.5225651487346685e-07 ,-1.7793706664639406e-08 ,4.7338416454942875e-07 ,48.392655136999906     ,0.0 ,35.04994589773833     ,2.38437607047257        ,        0.0 ,        0.0 , 0.0
 0.0 ,0.0 ,           0.0 ,            0.0 ,            0.0 ,            0.0 ,              0.0 ,                   0.0 , 145.0 ,65.38462 ,-10.5641  ,           0.0 ,           0.0 ,       0.0 ,80.85386       ,-18.64949   ,0.005317606      ,-0.0001587131    ,                 0.0 ,             0.0 ,             0.0 ,                 0.0 ,                 0.0 ,        0.0 ,2.541350034987315      ,            0.0 ,            0.0 ,            0.0 ,              0.0 ,                   0.0 ,  0.0 ,0.0 , 340.1097722270439   ,1.0                ,0.0 ,-103.24346561871891 ,-193.1778430987057  ,4.0877996968193555      ,-97.90942793212506  ,          0.0 ,          0.0 ,-103.04617807317553 ,-193.375140919916   ,-97.90942793212506  ,-394.3307726143838  , 53.715502841343245  ,131.44357374534974  , 93.03797061922934   ,-98.25302489712362    ,-188.18742292844422 ,4.0877996968193555      ,-92.91898721052978  ,          0.0 ,          0.0 ,-98.05573735158025   ,-188.38472074965446 ,-92.91898721052978  ,-379.35940934693036 , 53.715502841343245  ,126.45315357508828   , 93.03797061922934   ,-3.2722484699454257e-06 ,8.352955348910401e-07   ,1.979108454138249e-06   ,      0.0 ,      0.0 ,      0.0 ,1.0880698499188855e-06  ,-3.5250229763016873e-06 ,      0.0 ,-2.436953268036805e-06  ,2.4171594000252827e-06 ,0.06374528214123437  ,0.0003575311850638456   ,-2.6882124124486555e-08 ,-1.9595169169280637e-10 ,5.50913852712657e-07   ,82.43863007743948      ,0.0 ,0.38598456869314407   ,0.026257740078936755    ,        0.0 ,        0.0 , 0.0
 0.0 ,0.0 ,           0.0 ,            0.0 ,            0.0 ,            0.0 ,              0.0 ,                   0.0 , 146.0 ,63.46154 ,-10.74359 ,           0.0 ,           0.0 ,       0.0 ,79.0975        ,-18.65334   ,-0.003582569     ,0.0001378888     ,                 0.0 ,             0.0 ,             0.0 ,                 0.0 ,                 0.0 ,        0.0 ,2.403950601771726      ,            0.0 ,            0.0 ,            0.0 ,              0.0 ,                   0.0 ,  0.0 ,0.0 , 298.98117920724786  ,1.0                ,0.0 ,-107.06970488664865 ,-196.55072681551727 ,3.1091712936012437      ,-99.99100750062254  ,          0.0 ,          0.0 ,-106.95739831193241 ,-196.6630409936208  ,-99.99100750062254  ,-403.61143159940116 , 53.92163952219387   ,134.53714555610867  , 93.39501964291952   ,-102.08016962316597   ,-191.56120286791383 ,3.1091712936012437      ,-95.00147223713988  ,          0.0 ,          0.0 ,-101.96786304844973  ,-191.67351704601742 ,-95.00147223713988  ,-388.6428421937572  , 53.92163952219387   ,129.547610292626     , 93.39501964291952   ,-3.3168303323352875e-06 ,6.887806244729498e-07   ,1.015920260882248e-06   ,      0.0 ,      0.0 ,      0.0 ,7.606069062317559e-07   ,-3.3886568054469515e-06 ,      0.0 ,-2.628050015912677e-06  ,2.2130635264788545e-06 ,0.06379055293857541  ,-6.395688259013235e-07  ,-1.8371630245676806e-08 ,0.0                     ,6.398531492457242e-07  ,81.08723906912297      ,0.0 ,0.0                   ,0.0                     ,        0.0 ,        0.0 , 0.0
 0.0 ,0.0 ,           0.0 ,            0.0 ,            0.0 ,            0.0 ,              0.0 ,                   0.0 , 147.0 ,61.53846 ,-10.92308 ,           0.0 ,           0.0 ,       0.0 ,77.34078       ,-18.65716   ,-0.007487539     ,0.0001694217     ,                 0.0 ,             0.0 ,             0.0 ,                 0.0 ,                 0.0 ,        0.0 ,3.043722076736625      ,            0.0 ,            0.0 ,            0.0 ,              0.0 ,                   0.0 ,  0.0 ,0.0 , 297.81077857391824  ,1.0                ,0.0 ,-108.46048582354148 ,-200.3398044295082  ,2.620477345507476       ,-101.7184353721068  ,          0.0 ,          0.0 ,-108.3815820463123  ,-200.41874189099468 ,-101.7184353721068  ,-410.5187355361221  , 55.166089255839     ,136.83957306535154  , 95.55050012996298   ,-103.47165933945129   ,-195.35102296561047 ,2.620477345507476       ,-96.72958759246633  ,          0.0 ,          0.0 ,-103.39273426667185  ,-195.4299356496829  ,-96.72958759246633  ,-395.55225851294347 , 55.166089255839     ,131.85072528571106   , 95.55050012996298   ,-3.330725718608438e-06  ,6.672538901896458e-07   ,8.960473552753108e-07   ,      0.0 ,      0.0 ,      0.0 ,7.352506309677242e-07   ,-3.3987224267550308e-06 ,      0.0 ,-2.663471730524336e-06  ,2.2107216827755594e-06 ,0.2781473189476606   ,0.027344055481437084    ,-5.72338202644459e-07   ,-8.059485452329676e-09  ,4.802870685822983e-07  ,37.70948332658266      ,0.0 ,41.150240473431       ,2.299340433816921       ,        0.0 ,        0.0 , 0.0
 0.0 ,0.0 ,           0.0 ,            0.0 ,            0.0 ,            0.0 ,              0.0 ,                   0.0 , 148.0 ,59.61538 ,-11.10256 ,           0.0 ,           0.0 ,       0.0 ,75.58395       ,-18.66096   ,-0.008598389     ,0.0001666361     ,                 0.0 ,             0.0 ,             0.0 ,                 0.0 ,                 0.0 ,        0.0 ,2.0573491082255977     ,            0.0 ,            0.0 ,            0.0 ,              0.0 ,                   0.0 ,  0.0 ,0.0 , 297.4769376162865   ,1.0                ,0.0 ,-109.7144249597874  ,-203.9265981555335  ,2.524861674677424       ,-103.34397732794018 ,          0.0 ,          0.0 ,-109.64170397737249 ,-203.99940697686444 ,-103.34397732794018 ,-416.98501017212817 , 56.38601265992567   ,138.9949797862432   , 97.6634392674932    ,-104.72649374651955   ,-198.93860342551739 ,2.524861674677424       ,-98.3559704368402   ,          0.0 ,          0.0 ,-104.6536970862725   ,-199.01138792468058 ,-98.3559704368402   ,-402.0210472806657  , 56.38601265992567   ,134.0070185158967    , 97.6634392674932    ,-3.1249175049251695e-06 ,7.012834240073567e-07   ,8.972018995412745e-07   ,      0.0 ,      0.0 ,      0.0 ,7.774589710460693e-07   ,-3.201092990779454e-06  ,      0.0 ,-2.4236342167098026e-06 ,2.112180974590713e-06  ,0.532344941002671    ,0.06812748028829352     ,-1.488625563162989e-06  ,-2.134548980852695e-08  ,0.0                    ,1.4887865042069875e-06 ,0.0 ,76.62512254884228     ,4.987980407694283       ,        0.0 ,        0.0 , 0.0
 0.0 ,0.0 ,           0.0 ,            0.0 ,            0.0 ,            0.0 ,              0.0 ,                   0.0 , 149.0 ,57.69231 ,-11.28205 ,           0.0 ,           0.0 ,       0.0 ,73.82702       ,-18.66475   ,-0.008319877     ,9.898462e-05     ,                 0.0 ,             0.0 ,             0.0 ,                 0.0 ,                 0.0 ,        0.0 ,2.7000108578187922     ,            0.0 ,            0.0 ,            0.0 ,              0.0 ,                   0.0 ,  0.0 ,0.0 , 297.0464530909813   ,1.0                ,0.0 ,-111.4246703920202  ,-207.11178335193802 ,2.368343083699799       ,-104.91344922537077 ,          0.0 ,          0.0 ,-111.36438341492875 ,-207.17210523068053 ,-104.91344922537077 ,-423.4499150505907  , 57.26984532657468   ,141.14996168389217  , 99.1942749196211    ,-106.43713561370629   ,-202.12418964991394 ,2.368343083699799       ,-99.92586270187158  ,          0.0 ,          0.0 ,-106.37679447517722  ,-202.18453320469538 ,-99.92586270187158  ,-408.487204809026   , 57.26984532657468   ,136.1624196568212    , 99.1942749196211    ,-3.4540281563902937e-06 ,7.840072840081588e-07   ,4.3238732418159947e-07  ,      0.0 ,      0.0 ,      0.0 ,7.984606105667816e-07   ,-3.4684813746260407e-06 ,      0.0 ,-2.6700208398394166e-06 ,2.2713500122927455e-06 ,0.4232426901481447   ,0.05790109643673073     ,-1.4417869721276905e-06 ,-1.6481161108091127e-08 ,6.395718468313847e-08  ,25.424944229110714     ,0.0 ,49.537700118870575    ,3.7808015637491046      ,        0.0 ,        0.0 , 0.0
 0.0 ,0.0 ,           0.0 ,            0.0 ,            0.0 ,            0.0 ,              0.0 ,                   0.0 , 150.0 ,55.76923 ,-11.46154 ,           0.0 ,           0.0 ,       0.0 ,72.06989       ,-18.66853   ,-0.007737969     ,-2.538392e-05    ,                 0.0 ,             0.0 ,             0.0 ,                 0.0 ,                 0.0 ,        0.0 ,1.8264481067184963     ,            0.0 ,            0.0 ,            0.0 ,              0.0 ,                   0.0 ,  0.0 ,0.0 , 298.46562907917894  ,1.0                ,0.0 ,-113.09123028717967 ,-209.72991064666164 ,2.185939538778535       ,-106.2507601822511  ,          0.0 ,          0.0 ,-113.04044513325532 ,-209.78062272413712 ,-106.2507601822511  ,-429.0718913257102  , 57.91537323147278   ,143.02397925510903  ,100.31238388551071   ,-108.10438078954168   ,-204.7430149314272  ,2.185939538778535       ,-101.26393509586998 ,          0.0 ,          0.0 ,-108.05361759927865  ,-204.7937805692858  ,-101.26393509586998 ,-414.1114087884789  , 57.91537323147278   ,138.03713710025772   ,100.31238388551071   ,-2.089414137795583e-06  ,3.3210145798127757e-07  ,2.487748337226911e-07   ,      0.0 ,      0.0 ,      0.0 ,3.585402912156235e-07   ,-2.1158527953206383e-06 ,      0.0 ,-1.7573122678998211e-06 ,1.3372733553947664e-06 ,0.4335423667444155   ,0.05428186991475442     ,-1.5228434932155821e-06 ,-1.0660557756970313e-08 ,2.2619386428177393e-07 ,14.019927082586177     ,0.0 ,58.54996807504859     ,3.892010891995927       ,        0.0 ,        0.0 , 0.0
 0.0 ,0.0 ,           0.0 ,            0.0 ,            0.0 ,            0.0 ,              0.0 ,                   0.0 , 151.0 ,53.84615 ,-11.64103 ,           0.0 ,           0.0 ,       0.0 ,70.31248       ,-18.67227   ,-0.009931576     ,-0.0003199226    ,                 0.0 ,             0.0 ,             0.0 ,                 0.0 ,                 0.0 ,        0.0 ,0.7528459699133851     ,            0.0 ,            0.0 ,            0.0 ,              0.0 ,                   0.0 ,  0.0 ,0.0 , 299.6655511471964   ,1.0                ,0.0 ,-114.98148826461056 ,-211.85128920805752 ,1.7456470812094946      ,-107.43614291662374 ,          0.0 ,          0.0 ,-114.94646000621799 ,-211.88628751236763 ,-107.43614291662374 ,-434.26894016161424 , 58.260850321256726  ,144.756322688517    ,100.91075654877409   ,-109.99474448340438   ,-206.86456767071405 ,1.7456470812094946      ,-102.44942908950003 ,          0.0 ,          0.0 ,-109.95974617909428  ,-206.8995433097669  ,-102.44942908950003 ,-419.308783976797   , 58.260850321256726  ,139.7695764357705    ,100.91075654877409   ,-2.2824524890771576e-06 ,4.2038751748401677e-07  ,-4.72644281087724e-07   ,      0.0 ,      0.0 ,      0.0 ,4.412579791572987e-07   ,-2.3033224617999494e-06 ,      0.0 ,-1.8620642713665103e-06 ,1.4738267794283768e-06 ,0.17688733799351525  ,0.018141605707842078    ,-2.530408559862066e-07  ,1.7554624783839082e-09  ,6.045582274176127e-07  ,57.7822084130299       ,0.0 ,14.112545092666394    ,1.1296264486825722      ,        0.0 ,        0.0 , 0.0
 0.0 ,0.0 ,           0.0 ,            0.0 ,            0.0 ,            0.0 ,              0.0 ,                   0.0 , 152.0 ,51.92308 ,-11.82051 ,           0.0 ,           0.0 ,       0.0 ,68.55462       ,-18.67597   ,-0.005022494     ,-0.0004244876    ,                 0.0 ,             0.0 ,             0.0 ,                 0.0 ,                 0.0 ,        0.0 ,1.486665853389669      ,            0.0 ,            0.0 ,            0.0 ,              0.0 ,                   0.0 ,  0.0 ,0.0 , 333.6902171426676   ,1.0                ,0.0 ,-114.34401670581872 ,-213.20079937171045 ,1.2846383899731717      ,-107.78781413540699 ,          0.0 ,          0.0 ,-114.32616266621505 ,-213.21870453623836 ,-107.78781413540699 ,-435.3326351734154  , 59.08561892156138   ,145.11087835639006  ,102.33930616113734   ,-109.35715607345543   ,-208.2139632185831  ,1.2846383899731717      ,-102.80091700936859 ,          0.0 ,          0.0 ,-109.33927041725974  ,-208.23176848735622 ,-102.80091700936859 ,-420.372026505543   , 59.08561892156138   ,140.12404209901752   ,102.33930616113734   ,-3.5302904258248553e-06 ,1.0857028516203285e-06  ,-4.244665261075003e-07  ,      0.0 ,      0.0 ,      0.0 ,1.1057847923587406e-06  ,-3.5503722131884943e-06 ,      0.0 ,-2.444587062955284e-06  ,2.4388306568446736e-06 ,0.5395557080006991   ,0.07187071411300246     ,-1.0250106118486683e-06 ,6.779611943776278e-09   ,2.6426910403924456e-10 ,0.10204719970882646    ,0.0 ,70.18415215322733     ,4.981670620236407       ,        0.0 ,        0.0 , 0.0
 0.0 ,0.0 ,           0.0 ,            0.0 ,            0.0 ,            0.0 ,              0.0 ,                   0.0 , 153.0 ,1.906761 ,-13.00425 ,           0.0 ,           0.0 ,       0.0 ,49.79493       ,-17.98374   ,-0.01808141      ,0.0038152        ,                 0.0 ,             0.0 ,             0.0 ,                 0.0 ,                 0.0 ,        0.0 ,2.7518923294012447     ,            0.0 ,            0.0 ,            0.0 ,              0.0 ,                   0.0 ,  0.0 ,0.0 , 163.6683018226207   ,1.0                ,0.0 ,-107.0061121855772  ,-242.55778752224955 ,-1.1381045721177605     ,-118.78050255875206 ,          0.0 ,          0.0 ,-106.9946379679738  ,-242.56933085085132 ,-118.78050255875206 ,-468.3444682626815  , 75.11447758646534   ,156.1148392370266   ,130.10208026781027   ,-102.02664286271701   ,-237.57828676957553 ,-1.1381045721177605     ,-113.80100952832842 ,          0.0 ,          0.0 ,-102.01514493755015  ,-237.5898052874102  ,-113.80100952832842 ,-453.4058649014557  , 75.11447758646534   ,151.1352879327507    ,130.10208026781027   ,4.198239925924855e-06   ,-5.379740735723545e-06  ,-2.3144217643445018e-07 ,      0.0 ,      0.0 ,      0.0 ,4.201311816998961e-06   ,-5.382812863873285e-06  ,      0.0 ,-1.1815003042826717e-06 ,4.85156372997035e-06   ,0.22301848640372798  ,0.014579956284844122    ,-1.217924123322539e-06  ,-5.177609316204633e-08  ,2.0070277604842398e-06 ,37.138724717665696     ,0.0 ,22.683801730868854    ,1.2849750057333789      ,        0.0 ,        0.0 , 0.0
 0.0 ,0.0 ,           0.0 ,            0.0 ,            0.0 ,            0.0 ,              0.0 ,                   0.0 , 154.0 ,1.877873 ,-14.96795 ,           0.0 ,           0.0 ,       0.0 ,31.79231       ,-18.14718   ,-0.02000375      ,0.003580523      ,                 0.0 ,             0.0 ,             0.0 ,                 0.0 ,                 0.0 ,        0.0 ,3.502913088624214      ,            0.0 ,            0.0 ,            0.0 ,              0.0 ,                   0.0 ,  0.0 ,0.0 ,  57.321971660018555 ,1.0                ,0.0 ,-123.04135650818156 ,-279.0578556958073  ,-1.5106042330603342     ,-136.662293902494   ,          0.0 ,          0.0 ,-123.02094241046206 ,-279.07831934902686 ,-136.662293902494   ,-538.761506106483   , 86.43391205399989   ,179.58718522066098  ,149.70789981400367   ,-118.0866385673857    ,-274.1030881995115  ,-1.5106042330603342     ,-131.7075265593893  ,          0.0 ,          0.0 ,-118.06612462285733  ,-274.123551852731   ,-131.7075265593893  ,-523.8971534794777  , 86.43391205399989   ,174.63241772436513   ,149.70789981400367   ,4.278845112598529e-06   ,-6.950645322394493e-06  ,-1.0396152696363572e-06 ,      0.0 ,      0.0 ,      0.0 ,4.31856386104786e-06    ,-6.990364063485734e-06  ,      0.0 ,-2.6717997068828743e-06 ,5.7286169344308e-06    ,0.38098069874569906  ,0.08092430679371297     ,-5.917950989939512e-06  ,-1.3382648045693383e-06 ,1.470594528930199e-06  ,24.778728180013353     ,0.0 ,15.423268194094996    ,2.481797637918672       ,        0.0 ,        0.0 , 0.0
 0.0 ,0.0 ,           0.0 ,            0.0 ,            0.0 ,            0.0 ,              0.0 ,                   0.0 , 155.0 ,1.853197 ,-16.93039 ,           0.0 ,           0.0 ,       0.0 ,15.25525       ,-18.45592   ,-0.01342971      ,0.004203048      ,                 0.0 ,             0.0 ,             0.0 ,                 0.0 ,                 0.0 ,        0.0 ,2.9894774289212664     ,            0.0 ,            0.0 ,            0.0 ,              0.0 ,                   0.0 ,  0.0 ,0.0 ,  58.14104812738032  ,1.0                ,0.0 ,-143.7569974964543  ,-315.7356222935209  ,-2.079969396282412      ,-155.44638633680887 ,          0.0 ,          0.0 ,-143.72371991511665 ,-315.76894999989554 ,-155.44638633680887 ,-614.9390562518211  , 96.12945551920744   ,204.97968553419116  ,166.50113297582413   ,-139.0126943749337    ,-310.99131952275275 ,-2.079969396282412      ,-150.702132739499   ,          0.0 ,          0.0 ,-138.97941714434842  ,-311.02464687837494 ,-150.702132739499   ,-600.7061469879378  , 96.12945551920744   ,200.23538241267053   ,166.50113297582413   ,3.0877326074721877e-06  ,-1.1907232933159296e-05 ,-2.3060769913736367e-06 ,      0.0 ,      0.0 ,      0.0 ,3.2072642723692396e-06  ,-1.2026763595555611e-05 ,      0.0 ,-8.819501328187847e-06  ,8.108946722497983e-06  ,0.40627126733236374  ,0.2048670609151738      ,-0.00035560516135428995 ,8.417853336468647e-06   ,0.0001586145680062594  ,14.951434821935633     ,0.0 ,5.595001732700119     ,2.2872605718553825      ,        0.0 ,        0.0 , 0.0
 0.0 ,0.0 ,           0.0 ,            0.0 ,            0.0 ,            0.0 ,              0.0 ,                   0.0 , 156.0 ,1.841278 ,-18.89159 ,           0.0 ,           0.0 ,       0.0 ,-1.835385      ,-18.70806   ,-0.009939798     ,0.004979809      ,                 0.0 ,             0.0 ,             0.0 ,                 0.0 ,                 0.0 ,        0.0 ,1.514817725423827      ,            0.0 ,            0.0 ,            0.0 ,              0.0 ,                   0.0 ,  0.0 ,0.0 ,  58.912496156770764 ,0.9999999999999999 ,0.0 ,-161.39857204593753 ,-346.28419360772415 ,-2.593423475155111      ,-171.12045989545965 ,          0.0 ,          0.0 ,-161.3489665996375  ,-346.3337990540242  ,-171.12045989545965 ,-678.8032255491213  ,104.10035088760009   ,226.26774190624724  ,180.30708686858853   ,-163.56048105435158   ,-348.44615212221413 ,-2.593423475155111      ,-173.28236890387376 ,          0.0 ,          0.0 ,-163.51092511412742  ,-348.49570806243827 ,-173.28236890387376 ,-685.2890016713255  ,104.10035088760009   ,228.42965091466132   ,180.30708686858853   ,4.67999328996881e-07    ,-1.4773652768851436e-05 ,-1.7682940273685774e-06 ,      0.0 ,      0.0 ,      0.0 ,5.194895088011835e-07   ,-1.4825141850521561e-05 ,      0.0 ,-1.4305653240193796e-05 ,8.716453906499072e-06  ,0.7927345264036865   ,-0.0031532519117134124  ,-0.020804101201642042   ,-5.575986827037475e-07  ,0.02444499029101361    ,-0.6874252809169602    ,0.0 ,-0.05447975997304279  ,-0.05447975997304279    ,        0.0 ,        0.0 , 0.0
 0.0 ,0.0 ,           0.0 ,            0.0 ,            0.0 ,            0.0 ,              0.0 ,                   0.0 , 157.0 ,1.844698 ,-20.85186 ,           0.0 ,           0.0 ,       0.0 ,-19.89475      ,-18.86238   ,-0.01201276      ,0.005756638      ,                 0.0 ,             0.0 ,             0.0 ,                 0.0 ,                 0.0 ,        0.0 ,2.980201944949532      ,            0.0 ,            0.0 ,            0.0 ,              0.0 ,                   0.0 ,  0.0 ,0.0 ,  59.816732121841866 ,1.0                ,0.0 ,-175.74774201363476 ,-368.5694467002673  ,-3.2770293559314583     ,-182.9418879928856  ,          0.0 ,          0.0 ,-175.67491651065694 ,-368.64227220324517 ,-182.9418879928856  ,-727.2591258742459  ,109.3752034815063    ,242.41974195808197  ,189.44343150008433   ,-194.3778886902893    ,-387.1996432043152  ,-3.2770293559314583     ,-201.57208449693354 ,          0.0 ,          0.0 ,-194.30506318731145  ,-387.27246870729306 ,-201.57208449693354 ,-783.1496157316028  ,109.3752034815063    ,261.0498886347365    ,189.44343150008433   ,6.0359449309538635e-06  ,-2.4104176443668997e-05 ,-1.2151861108828066e-06 ,      0.0 ,      0.0 ,      0.0 ,6.048759500870262e-06   ,-2.411698852221572e-05  ,      0.0 ,-1.806823151271513e-05  ,1.6038076407920475e-05 ,0.8198578000666171   ,0.4918366436047528      ,-0.0030623428654014905  ,-4.770444388821603e-05  ,0.0032985576598425076  ,-13.966290928349007    ,0.0 ,-4.660926815815863    ,-4.660926815815863      ,        0.0 ,        0.0 , 0.0
 0.0 ,0.0 ,           0.0 ,            0.0 ,            0.0 ,            0.0 ,              0.0 ,                   0.0 , 158.0 ,1.857321 ,-22.81225 ,           0.0 ,           0.0 ,       0.0 ,-39.01561      ,-18.91069   ,-0.02054699      ,0.006760272      ,                 0.0 ,             0.0 ,             0.0 ,                 0.0 ,                 0.0 ,        0.0 ,1.0240525897557768     ,            0.0 ,            0.0 ,            0.0 ,              0.0 ,                   0.0 ,  0.0 ,0.0 ,  60.736887216739355 ,1.0                ,0.0 ,-188.09351570679132 ,-387.3135988243992  ,-4.075529116502217      ,-193.2808619745386  ,          0.0 ,          0.0 ,-187.98555127057838 ,-387.4215625364089  ,-193.2808619745386  ,-768.6879262599521  ,113.65070892244776   ,256.22930867576764  ,196.84876791611663   ,-226.54871763612888   ,-425.76880075373674 ,-4.075529116502217      ,-231.73606390387613 ,          0.0 ,          0.0 ,-226.44070416989632  ,-425.87676446574636 ,-231.73606390387613 ,-884.0534822937418  ,113.65070892244776   ,294.6845106051052    ,196.84876791611663   ,2.1816137427840684e-06  ,-9.402420157456311e-06  ,-6.952638277854887e-07  ,      0.0 ,      0.0 ,      0.0 ,2.1921269528039466e-06  ,-9.412936352729562e-06  ,      0.0 ,-7.2208083758730275e-06 ,6.1679699755079564e-06 ,1.0                  ,-0.03165736038064969    ,-0.00614361362238449    ,0.0                     ,0.03228244508269611    ,-38.45517722033167     ,0.0 ,0.0                   ,0.0                     ,        0.0 ,        0.0 , 0.0
 0.0 ,0.0 ,           0.0 ,            0.0 ,            0.0 ,            0.0 ,              0.0 ,                   0.0 , 159.0 ,1.876029 ,-24.77302 ,           0.0 ,           0.0 ,       0.0 ,-58.38435      ,-18.93459   ,-0.04211117      ,-0.001797553     ,                 0.0 ,             0.0 ,             0.0 ,                 0.0 ,                 0.0 ,        0.0 ,2.9900011583054455     ,            0.0 ,            0.0 ,            0.0 ,              0.0 ,                   0.0 ,  0.0 ,0.0 ,  61.67768449348216  ,1.0                ,0.0 ,-202.01164997325282 ,-407.31074358462934 ,-4.896813450385201      ,-204.23997897208866 ,          0.0 ,          0.0 ,-201.86187414318087 ,-407.46046991464334 ,-204.23997897208866 ,-813.5623238301439  ,118.02935682043264   ,271.18744127671465  ,204.43286840074524   ,-259.8057474656171    ,-465.1048907767047  ,-4.896813450385201      ,-262.03412616416404 ,          0.0 ,          0.0 ,-259.6560211356031   ,-465.2546171067188  ,-262.03412616416404 ,-986.9445650070636  ,118.02935682043264   ,328.98158846879005   ,204.43286840074524   ,7.304792121603016e-06   ,-1.6899575320779663e-05 ,-5.625658050452327e-07  ,      0.0 ,      0.0 ,      0.0 ,7.3081613056226746e-06  ,-1.69029474947843e-05   ,      0.0 ,-9.594783247174324e-06  ,1.2492332004651065e-05 ,0.7987470336635403   ,0.4957144156867888      ,-0.0018382714670373045  ,-4.180663158142233e-06  ,0.0012826975543345418  ,-24.79722993939381     ,0.0 ,-32.995071606525194   ,-32.995071606525194     ,        0.0 ,        0.0 , 0.0
 0.0 ,0.0 ,           0.0 ,            0.0 ,            0.0 ,            0.0 ,              0.0 ,                   0.0 , 160.0 ,1.898463 ,-26.73314 ,           0.0 ,           0.0 ,       0.0 ,-77.85061      ,-18.94808   ,-0.0700331       ,-0.008974858     ,                 0.0 ,             0.0 ,             0.0 ,                 0.0 ,                 0.0 ,        0.0 ,0.9901183563318406     ,            0.0 ,            0.0 ,            0.0 ,              0.0 ,                   0.0 ,  0.0 ,0.0 ,   9.001580895010353 ,1.0                ,0.0 ,-215.57574565452802 ,-424.2505088031004  ,-3.8875902109826788     ,-214.04176478573623 ,          0.0 ,          0.0 ,-215.50044429476833 ,-424.3258101628601  ,-214.04176478573623 ,-853.8680687492824  ,121.00131138001342   ,284.6227064144549   ,209.58037263336425   ,-293.27926904069216   ,-501.954081023197   ,-3.8875902109826788     ,-291.74528817190037 ,          0.0 ,          0.0 ,-293.20401734493976  ,-502.0293327189494  ,-291.74528817190037 ,-1086.9787385519685 ,121.00131138001342   ,362.3262289705441    ,209.58037263336425   ,4.140311592742984e-06   ,-7.385985902728631e-06  ,-1.591403867534357e-07  ,      0.0 ,      0.0 ,      0.0 ,4.14086061337157e-06    ,-7.386535418416395e-06  ,      0.0 ,-3.2456767852815386e-06 ,5.839356672445135e-06  ,0.7967470702121713   ,0.4946054195973158      ,-0.01163621024737       ,-0.0032756129447175483  ,0.002035505647821299   ,-34.78527771079844     ,0.0 ,-42.90619604351337    ,-42.90619604351337      ,        0.0 ,        0.0 , 0.0
 0.0 ,0.0 ,           0.0 ,            0.0 ,            0.0 ,            0.0 ,              0.0 ,                   0.0 , 161.0 ,3.79641  ,-26.46287 ,           0.0 ,           0.0 ,       0.0 ,-75.65003      ,-18.89787   ,-0.01696123      ,0.003215327      ,                 0.0 ,             0.0 ,             0.0 ,                 0.0 ,                 0.0 ,        0.0 ,1.4878145217822494     ,            0.0 ,            0.0 ,            0.0 ,              0.0 ,                   0.0 ,  0.0 ,0.0 ,  63.532855012268435 ,1.0                ,0.0 ,-212.40653227874094 ,-417.5601193080097  ,-6.2735818589274785     ,-210.68975054121375 ,          0.0 ,          0.0 ,-212.2075109879712  ,-417.7591405987794  ,-210.68975054121375 ,-840.6564021279644  ,119.11750757468398   ,280.2188009710725   ,206.31760692390378   ,-287.1440937278951    ,-492.2976814610804  ,-6.2735818589274785     ,-285.4273119090314  ,          0.0 ,          0.0 ,-286.94507322237837  ,-492.49670196659713 ,-285.4273119090314  ,-1064.8688911056086 ,119.11750757468398   ,354.95636233889013   ,206.31760692390378   ,1.788206334602428e-06   ,-1.4320773807621956e-05 ,-1.4310735833190766e-06 ,      0.0 ,      0.0 ,      0.0 ,1.836664020875272e-06   ,-1.436923233303132e-05  ,      0.0 ,-1.253256637750915e-05  ,8.887898581499798e-06  ,0.5935626314444757   ,1.0                     ,-0.003091171456517831   ,-5.5818272879529424e-05 ,0.0                    ,0.003098339177416618   ,0.0 ,-74.73755674964929    ,-74.73755674964929      ,        0.0 ,        0.0 , 0.0
 0.0 ,0.0 ,           0.0 ,            0.0 ,            0.0 ,            0.0 ,              0.0 ,                   0.0 , 162.0 ,5.692229 ,-26.18943 ,           0.0 ,           0.0 ,       0.0 ,-73.35873      ,-18.85355   ,-0.0009905124    ,0.000862089      ,                 0.0 ,             0.0 ,             0.0 ,                 0.0 ,                 0.0 ,        0.0 ,1.9919801451632897     ,            0.0 ,            0.0 ,            0.0 ,              0.0 ,                   0.0 ,  0.0 ,0.0 ,  64.61242635275966  ,1.0                ,0.0 ,-208.45989025653415 ,-408.8904436156655  ,-6.81895450185142       ,-206.39458133565964 ,          0.0 ,          0.0 ,-208.22579935349842 ,-409.12453449044136 ,-206.39458133565964 ,-823.7449151795995  ,116.52166062353369   ,274.58163839319974  ,201.82141539053112   ,-281.1226695633564    ,-481.5532221770222  ,-6.81895450185142       ,-279.0573598970162  ,          0.0 ,          0.0 ,-280.8885290471834   ,-481.7873130800579  ,-279.0573598970162  ,-1041.7328042889144 ,116.52166062353369   ,347.24436734141915   ,201.82141539053112   ,-8.669587232236053e-07  ,-7.49811151617411e-06   ,-1.6568447383179887e-06 ,      0.0 ,      0.0 ,      0.0 ,-7.64812408875646e-07   ,-7.600256310072931e-06  ,      0.0 ,-8.36507068931022e-06   ,4.185339556136147e-06  ,0.7943655820075807   ,0.5026219115634115      ,-0.011444918477586588   ,-0.007438473300831861   ,0.0012467240603064647  ,-39.695327067083674    ,0.0 ,-32.953778192077394   ,-32.953778192077394     ,        0.0 ,        0.0 , 0.0
 0.0 ,0.0 ,           0.0 ,            0.0 ,            0.0 ,            0.0 ,              0.0 ,                   0.0 , 163.0 ,7.585523 ,-25.91199 ,           0.0 ,           0.0 ,       0.0 ,-70.9445       ,-18.81754   ,0.002349874      ,0.000962764      ,                 0.0 ,             0.0 ,             0.0 ,                 0.0 ,                 0.0 ,        0.0 ,2.0155852572298167     ,            0.0 ,            0.0 ,            0.0 ,              0.0 ,                   0.0 ,  0.0 ,0.0 ,  65.62610195686347  ,1.0                ,0.0 ,-205.56037557383232 ,-403.94578342155853 ,-7.42811702616736       ,-203.76406154567633 ,          0.0 ,          0.0 ,-205.2814862740329  ,-404.2247231552384  ,-203.76406154567633 ,-813.2702709749476  ,115.3010021761034    ,271.09012339856156  ,199.70721997171813   ,-274.9596710999506    ,-473.3450789476768  ,-7.42811702616736       ,-273.16335707179456 ,          0.0 ,          0.0 ,-274.6807313662707   ,-473.6239682474762  ,-273.16335707179456 ,-1021.4680032231076 ,115.3010021761034    ,340.4893189246798    ,199.70721997171813   ,-3.0524695723048507e-06 ,-1.5182087026500641e-05 ,-3.2188050314381656e-06 ,      0.0 ,      0.0 ,      0.0 ,-2.820834089211379e-06  ,-1.5413719511364073e-05 ,      0.0 ,-1.8234555611735814e-05 ,8.21156704747227e-06   ,0.7979187321057777   ,0.4938123097356942      ,-0.0018305626178796348  ,-3.7697428003209077e-06 ,0.001848893887570411   ,-31.117029977658284    ,0.0 ,-38.28039496233178    ,-38.28039496233178      ,        0.0 ,        0.0 , 0.0
 0.0 ,0.0 ,           0.0 ,            0.0 ,            0.0 ,            0.0 ,              0.0 ,                   0.0 , 164.0 ,9.476814 ,-25.62284 ,           0.0 ,           0.0 ,       0.0 ,-68.32833      ,-18.79001   ,0.004510654      ,0.0005988599     ,                 0.0 ,             0.0 ,             0.0 ,                 0.0 ,                 0.0 ,        0.0 ,1.502026215980485      ,            0.0 ,            0.0 ,            0.0 ,              0.0 ,                   0.0 ,  0.0 ,0.0 ,  66.77870538360231  ,1.0                ,0.0 ,-202.4844694277282  ,-398.7956697617203  ,-8.092655163068414      ,-200.94767908201305 ,          0.0 ,          0.0 ,-202.15056915891913 ,-399.12952023315097 ,-200.94767908201305 ,-802.2277684740832  ,114.07521963260254   ,267.4092564573281   ,197.58407484136558   ,-268.99822456158466   ,-465.30942489557674 ,-8.092655163068414      ,-267.46148376691895 ,          0.0 ,          0.0 ,-268.66437409015396  ,-465.64332516438583 ,-267.46148376691895 ,-1001.7693307767056 ,114.07521963260254   ,333.9230604906617    ,197.58407484136558   ,-3.2232525648820925e-06 ,-1.6290346413852144e-05 ,-4.444484584313998e-06  ,      0.0 ,      0.0 ,      0.0 ,-2.8377934149796705e-06 ,-1.6675806019296573e-05 ,      0.0 ,-1.9513600978734233e-05 ,8.944039561175253e-06  ,0.5921501298434376   ,1.0                     ,-0.0029270135276942256  ,-1.4066154324601349e-06 ,0.0                    ,0.0029270195382623794  ,0.0 ,-66.51378972265097    ,-66.51378972265097      ,        0.0 ,        0.0 , 0.0
 0.0 ,0.0 ,           0.0 ,            0.0 ,            0.0 ,            0.0 ,              0.0 ,                   0.0 , 165.0 ,11.3661  ,-25.31911 ,           0.0 ,           0.0 ,       0.0 ,-65.49336      ,-18.76978   ,0.00637299       ,0.0003934293     ,                 0.0 ,             0.0 ,             0.0 ,                 0.0 ,                 0.0 ,        0.0 ,0.5088577074512729     ,            0.0 ,            0.0 ,            0.0 ,              0.0 ,                   0.0 ,  0.0 ,0.0 ,  68.00073568816602  ,1.0                ,0.0 ,-199.0246121403939  ,-393.18026944810003 ,-8.335974504484216      ,-197.87868272114434 ,          0.0 ,          0.0 ,-198.66542979334946 ,-393.5394017902952  ,-197.87868272114434 ,-790.0835643096384  ,112.73853468022305   ,263.36118810644564  ,195.2687893685979    ,-263.46026784211693   ,-457.6158755951331  ,-8.335974504484216      ,-262.3142893086381  ,          0.0 ,          0.0 ,-263.1010854950725   ,-457.9750574920182  ,-262.3142893086381  ,-983.3902358388118  ,112.73853468022305   ,327.79679424378      ,195.2687893685979    ,-1.3321303659596138e-06 ,-9.279192923944007e-06  ,-2.585071165053279e-06  ,      0.0 ,      0.0 ,      0.0 ,-1.1270693273485187e-06 ,-9.48425197997956e-06   ,      0.0 ,-1.0611324298809824e-05 ,5.18141281895789e-06   ,0.7940170401895799   ,0.5012364802029963      ,-0.0064604557723614755  ,2.4537426255845445e-06  ,0.006250521352461712   ,-36.21820867255989     ,0.0 ,-28.216326160458703   ,-28.216326160458703     ,        0.0 ,        0.0 , 0.0
 0.0 ,0.0 ,           0.0 ,            0.0 ,            0.0 ,            0.0 ,              0.0 ,                   0.0 , 166.0 ,13.25455 ,-25.00404 ,           0.0 ,           0.0 ,       0.0 ,-62.48806      ,-18.75524   ,0.008681707      ,-1.022196e-05    ,                 0.0 ,             0.0 ,             0.0 ,                 0.0 ,                 0.0 ,        0.0 ,1.4935284280388377     ,            0.0 ,            0.0 ,            0.0 ,              0.0 ,                   0.0 ,  0.0 ,0.0 ,  69.20217984346873  ,1.0                ,0.0 ,-197.36511202861868 ,-390.0392589547771  ,-8.768644556299575      ,-196.18460631938171 ,          0.0 ,          0.0 ,-196.96556616515574 ,-390.4388054311364  ,-196.18460631938171 ,-783.5890274956561  ,111.92822235635217   ,261.1963589494996   ,193.8653374425634    ,-257.8051404278508    ,-450.479336706852   ,-8.768644556299575      ,-256.6246344914745  ,          0.0 ,          0.0 ,-257.40564414436994  ,-450.8788834103507  ,-256.6246344914745  ,-964.90921071762    ,111.92822235635217   ,321.63638734873166   ,193.8653374425634    ,-3.822974593057389e-06  ,-1.750191033690803e-05  ,-5.114544532369652e-06  ,      0.0 ,      0.0 ,      0.0 ,-3.354170602031328e-06  ,-1.797071784143559e-05  ,      0.0 ,-2.132488942280863e-05  ,9.580114419580711e-06  ,0.5932400942282579   ,0.9977138629158392      ,-0.0029366653717465218  ,3.900056006050304e-07   ,2.8649947504215295e-05 ,-0.16310305972699093   ,0.0 ,-60.274052831527      ,-60.274052831527        ,        0.0 ,        0.0 , 0.0
 0.0 ,0.0 ,           0.0 ,            0.0 ,            0.0 ,            0.0 ,              0.0 ,                   0.0 , 167.0 ,15.14528 ,-24.69452 ,           0.0 ,           0.0 ,       0.0 ,-59.49539      ,-18.74498   ,0.009872532      ,-0.0003546687    ,                 0.0 ,             0.0 ,             0.0 ,                 0.0 ,                 0.0 ,        0.0 ,2.496192026081366      ,            0.0 ,            0.0 ,            0.0 ,              0.0 ,                   0.0 ,  0.0 ,0.0 ,  70.06290205580606  ,1.0                ,0.0 ,-195.27129813052878 ,-386.2674251434986  ,-8.7417190254687        ,-194.20986357686442 ,          0.0 ,          0.0 ,-194.87053822660351 ,-386.6681847289724  ,-194.20986357686442 ,-775.7485868508918  ,110.92568276080868   ,258.58287892951535  ,192.12901139837956   ,-252.94174317278646   ,-443.93792056655377 ,-8.7417190254687        ,-251.88040830067055 ,          0.0 ,          0.0 ,-252.54103364965863  ,-444.3386300896816  ,-251.88040830067055 ,-948.7601224208081  ,110.92568276080868   ,316.2533740341189    ,192.12901139837956   ,-4.694851894810892e-06  ,-1.6611871049162097e-05 ,-4.321524961974319e-06  ,      0.0 ,      0.0 ,      0.0 ,-4.312379538505642e-06  ,-1.6994348885736792e-05 ,      0.0 ,-2.1306727927494173e-05 ,8.864750961202279e-06  ,0.5920234352490903   ,1.0                     ,-0.004700449075761805   ,-6.303511646746789e-06  ,0.0                    ,0.004700453069392773   ,0.0 ,-57.67051020081124    ,-57.67051020081124      ,        0.0 ,        0.0 , 0.0
 0.0 ,0.0 ,           0.0 ,            0.0 ,            0.0 ,            0.0 ,              0.0 ,                   0.0 , 168.0 ,17.03927 ,-24.3945  ,           0.0 ,           0.0 ,       0.0 ,-56.56779      ,-18.73772   ,0.01057014       ,-0.0008410178    ,                 0.0 ,             0.0 ,             0.0 ,                 0.0 ,                 0.0 ,        0.0 ,1.7512417909712443     ,            0.0 ,            0.0 ,            0.0 ,              0.0 ,                   0.0 ,  0.0 ,0.0 ,  70.88690380796761  ,1.0                ,0.0 ,-192.44421633047978 ,-382.22376846276404 ,-8.48223213420155       ,-191.7939012240646  ,          0.0 ,          0.0 ,-192.0649672998232  ,-382.6030174934206  ,-191.7939012240646  ,-766.4618860173084  ,110.08569904817779   ,255.48730376742043  ,190.67407605424586   ,-248.07980968993274   ,-437.859361822217   ,-8.48223213420155       ,-247.4295697661874  ,          0.0 ,          0.0 ,-247.70056065927616  ,-438.23861085287353 ,-247.4295697661874  ,-933.368716461007   ,110.08569904817779   ,311.12289712687334   ,190.67407605424586   ,-2.395771909158284e-06  ,-7.702970323214381e-06  ,-2.00549281933627e-06   ,      0.0 ,      0.0 ,      0.0 ,-2.2120155950880564e-06 ,-7.886729147074984e-06  ,      0.0 ,-1.0098744503342193e-05 ,4.076462536504767e-06  ,0.7966686674466037   ,0.5002360661082321      ,-0.006394796374401358   ,-2.9816353406053933e-06 ,0.004392253525853711   ,-24.383359861172906    ,0.0 ,-31.25018750513445    ,-31.25018750513445      ,        0.0 ,        0.0 , 0.0
 0.0 ,0.0 ,           0.0 ,            0.0 ,            0.0 ,            0.0 ,              0.0 ,                   0.0 , 169.0 ,18.93593 ,-24.09972 ,           0.0 ,           0.0 ,       0.0 ,-53.67303      ,-18.73242   ,0.01161897       ,-0.0007570858    ,                 0.0 ,             0.0 ,             0.0 ,                 0.0 ,                 0.0 ,        0.0 ,2.74600989275714       ,            0.0 ,            0.0 ,            0.0 ,              0.0 ,                   0.0 ,  0.0 ,0.0 ,  71.82600897463418  ,1.0                ,0.0 ,-190.83907793435358 ,-379.8273879835804  ,-8.405062600254968      ,-190.29964767763818 ,          0.0 ,          0.0 ,-190.46496575331793 ,-380.2014755097942  ,-190.29964767763818 ,-760.9661135955721  ,109.5921871224184    ,253.655379416798    ,189.81926783834717   ,-243.03978899521707   ,-432.0280990444438  ,-8.405062600254968      ,-242.50040857937068 ,          0.0 ,          0.0 ,-242.66570146900327  ,-432.40221122547945 ,-242.50040857937068 ,-917.5682464599006  ,109.5921871224184    ,305.8560904776615    ,189.81926783834717   ,-3.2681934631260385e-06 ,-1.1899773391065602e-05 ,-2.9077071741823714e-06 ,      0.0 ,      0.0 ,      0.0 ,-3.0281406417654156e-06 ,-1.213982797224324e-05  ,      0.0 ,-1.5167969081620477e-05 ,6.324042800023958e-06  ,0.6964925231455441   ,0.7477424061076638      ,-0.004854781889917736   ,-8.481153465719194e-07  ,0.002217005332035301   ,-12.305959198719595    ,0.0 ,-39.892090679668755   ,-39.892090679668755     ,        0.0 ,        0.0 , 0.0
 0.0 ,0.0 ,           0.0 ,            0.0 ,            0.0 ,            0.0 ,              0.0 ,                   0.0 , 170.0 ,20.83423 ,-23.80262 ,           0.0 ,           0.0 ,       0.0 ,-50.74305      ,-18.72832   ,0.01317939       ,-0.000569139     ,                 0.0 ,             0.0 ,             0.0 ,                 0.0 ,                 0.0 ,        0.0 ,2.9926289041596097     ,            0.0 ,            0.0 ,            0.0 ,              0.0 ,                   0.0 ,  0.0 ,0.0 ,  72.93092267073605  ,1.0                ,0.0 ,-189.46677028724127 ,-377.6881323799109  ,-8.203574986326263      ,-188.9369592900674  ,          0.0 ,          0.0 ,-189.10945406800985 ,-378.0453982305874  ,-188.9369592900674  ,-756.0918115886648  ,109.13202077971276   ,252.03062050688737  ,189.02224176982756   ,-238.14365391735475   ,-426.36506550546414 ,-8.203574986326263      ,-237.6138924156207  ,          0.0 ,          0.0 ,-237.7863876301207   ,-426.72233179269824 ,-237.6138924156207  ,-902.1225622069944  ,109.13202077971276   ,300.70755406899815   ,189.02224176982756   ,-3.7968418458303683e-06 ,-1.6516578552036237e-05 ,-3.9884657252615046e-06 ,      0.0 ,      0.0 ,      0.0 ,-3.4868820570309007e-06 ,-1.6826541815322288e-05 ,      0.0 ,-2.0313424385055296e-05 ,8.88229787602248e-06   ,0.7992621952866037   ,0.4944553381183119      ,-0.0012428116582933282  ,-2.3381631920994686e-06 ,0.0018591139614929013  ,-19.340970688383344    ,0.0 ,-29.334710358477547   ,-29.334710358477547     ,        0.0 ,        0.0 , 0.0
 0.0 ,0.0 ,           0.0 ,            0.0 ,            0.0 ,            0.0 ,              0.0 ,                   0.0 , 171.0 ,22.73328 ,-23.49324 ,           0.0 ,           0.0 ,       0.0 ,-47.68348      ,-18.72489   ,0.01376131       ,-0.0004317451    ,                 0.0 ,             0.0 ,             0.0 ,                 0.0 ,                 0.0 ,        0.0 ,2.487858160982829      ,            0.0 ,            0.0 ,            0.0 ,              0.0 ,                   0.0 ,  0.0 ,0.0 ,  73.5454140395938   ,1.0                ,0.0 ,-187.69765570101265 ,-374.5434311413119  ,-7.624820444860846      ,-187.12668823437917 ,          0.0 ,          0.0 ,-187.38684471925222 ,-374.8541916948817  ,-187.12668823437917 ,-749.3677254345064  ,108.3095280669811    ,249.78925859743634  ,187.5976003617733    ,-233.70624039396967   ,-420.55196540607824 ,-7.624820444860846      ,-233.1352232851388  ,          0.0 ,          0.0 ,-233.39542941220924  ,-420.8627763878387  ,-233.1352232851388  ,-887.3934290851867  ,108.3095280669811    ,295.7978425044001    ,187.5976003617733    ,-3.88855422442501e-06   ,-1.4481377779040746e-05 ,-2.674353056439285e-06  ,      0.0 ,      0.0 ,      0.0 ,-3.7167408895647396e-06 ,-1.4653189625338974e-05 ,      0.0 ,-1.8369932034201607e-05 ,7.618484771441053e-06  ,0.7949423747681688   ,0.50174980730992        ,-0.00286666266134073    ,-9.35361908180725e-06   ,0.0018282188737948249  ,-27.97337584801623     ,0.0 ,-18.03233186374484    ,-18.03233186374484      ,        0.0 ,        0.0 , 0.0
 0.0 ,0.0 ,           0.0 ,            0.0 ,            0.0 ,            0.0 ,              0.0 ,                   0.0 , 172.0 ,24.63179 ,-23.15713 ,           0.0 ,           0.0 ,       0.0 ,-44.35332      ,-18.7218    ,0.01396555       ,-0.0002070237    ,                 0.0 ,             0.0 ,             0.0 ,                 0.0 ,                 0.0 ,        0.0 ,2.002683801136591      ,            0.0 ,            0.0 ,            0.0 ,              0.0 ,                   0.0 ,  0.0 ,0.0 ,  75.44640102650908  ,1.0                ,0.0 ,-185.88564541903963 ,-372.02932940101306 ,-7.346655472831496      ,-185.61907288430916 ,          0.0 ,          0.0 ,-185.59516202999436 ,-372.31976303859403 ,-185.61907288430916 ,-743.5339979528976  ,107.79874225874165   ,247.8446660737592   ,186.7129201713102    ,-228.41439056952427   ,-414.55807455149767 ,-7.346655472831496      ,-228.14781803479377 ,          0.0 ,          0.0 ,-228.12395693194318  ,-414.84850818907876 ,-228.14781803479377 ,-871.1203327929342  ,107.79874225874165   ,290.37346097570804   ,186.7129201713102    ,-3.2781074051552646e-06 ,-1.5236887499173422e-05 ,-2.634991292876468e-06  ,      0.0 ,      0.0 ,      0.0 ,-3.134043584517078e-06  ,-1.538095131598435e-05  ,      0.0 ,-1.85149949092994e-05   ,8.14463357479234e-06   ,0.5961435619795822   ,1.0                     ,-0.003968134208001308   ,-6.086256673545526e-06  ,0.0                    ,0.003968155745328877   ,0.0 ,-42.52877500533203    ,-42.52877500533203      ,        0.0 ,        0.0 , 0.0
 0.0 ,0.0 ,           0.0 ,            0.0 ,            0.0 ,            0.0 ,              0.0 ,                   0.0 , 173.0 ,26.53023 ,-22.78389 ,           0.0 ,           0.0 ,       0.0 ,-40.65041      ,-18.71885   ,0.01468848       ,2.996647e-05     ,                 0.0 ,             0.0 ,             0.0 ,                 0.0 ,                 0.0 ,        0.0 ,1.0                    ,            0.0 ,            0.0 ,            0.0 ,              0.0 ,                   0.0 ,  0.0 ,0.0 ,  90.74307792223068  ,1.0                ,0.0 ,-184.00691983534466 ,-369.49312263679496 ,-6.977865663805377      ,-184.10092930387322 ,          0.0 ,          0.0 ,-183.7431738534521  ,-369.75684466180985 ,-184.10092930387322 ,-737.6009478191352  ,107.29196498421076   ,245.8669828659074   ,185.83509170560058   ,-222.42199405830408   ,-407.9081968597544  ,-6.977865663805377      ,-222.51600352683266 ,          0.0 ,          0.0 ,-222.15827203328917  ,-408.1718684954759  ,-222.51600352683266 ,-852.8461423586464  ,107.29196498421076   ,284.282030656451     ,185.83509170560058   ,-2.2229336109363726e-06 ,-1.725111110864195e-05  ,-3.1914589127230026e-06 ,      0.0 ,      0.0 ,      0.0 ,-2.054810771819592e-06  ,-1.7419231667862835e-05 ,      0.0 ,-1.9474040705404362e-05 ,9.522359912044576e-06  ,0.5972374032855232   ,1.0                     ,-0.0021759381813268143  ,4.096711844184183e-06   ,0.0                    ,0.002175956272562474   ,0.0 ,-38.415063388461526   ,-38.415063388461526     ,        0.0 ,        0.0 , 0.0
 0.0 ,0.0 ,           0.0 ,            0.0 ,            0.0 ,            0.0 ,              0.0 ,                   0.0 , 174.0 ,28.43548 ,-22.39002 ,           0.0 ,           0.0 ,       0.0 ,-36.74039      ,-18.71598   ,0.01526388       ,0.0005436452     ,                 0.0 ,             0.0 ,             0.0 ,                 0.0 ,                 0.0 ,        0.0 ,1.2581824212989146     ,            0.0 ,            0.0 ,            0.0 ,              0.0 ,                   0.0 ,  0.0 ,0.0 ,  84.61157021641868  ,1.0                ,0.0 ,-182.59590425679926 ,-366.241124814586   ,-6.597039536465674      ,-182.57883149733942 ,          0.0 ,          0.0 ,-182.35834382002696 ,-366.4786852513583  ,-182.57883149733942 ,-731.4158605687246  ,106.23853937262628   ,243.80530350865246  ,184.01049308749344   ,-217.23774520929607   ,-400.88296576708274 ,-6.597039536465674      ,-217.22068535895727 ,          0.0 ,          0.0 ,-217.00018477252377  ,-401.12046413435974 ,-217.22068535895727 ,-835.3413342658408  ,106.23853937262628   ,278.447082391654     ,184.01049308749344   ,-2.3676527338089387e-06 ,-1.6630879263627353e-05 ,-2.6012376025958525e-06 ,      0.0 ,      0.0 ,      0.0 ,-2.247611061218423e-06  ,-1.6750918220016735e-05 ,      0.0 ,-1.8998528662250898e-05 ,9.10766608200095e-06   ,0.5959925384456772   ,1.0                     ,-0.002641526239756652   ,1.316857443584183e-05   ,0.0                    ,0.002641564520447855   ,0.0 ,-34.64182478438123    ,-34.64182478438123      ,        0.0 ,        0.0 , 0.0
 0.0 ,0.0 ,           0.0 ,            0.0 ,            0.0 ,            0.0 ,              0.0 ,                   0.0 , 175.0 ,30.36624 ,-22.05659 ,           0.0 ,           0.0 ,       0.0 ,-33.43408      ,-18.71318   ,0.01717614       ,0.0003496842     ,                 0.0 ,             0.0 ,             0.0 ,                 0.0 ,                 0.0 ,        0.0 ,1.5020791185594136     ,            0.0 ,            0.0 ,            0.0 ,              0.0 ,                   0.0 ,  0.0 ,0.0 , 225.31336422038444  ,1.0                ,0.0 ,-181.44943023794065 ,-363.5863900017878  ,-6.103236442623066      ,-181.37967342571457 ,          0.0 ,          0.0 ,-181.2441122841404  ,-363.791707955588   ,-181.37967342571457 ,-726.4154769294723  ,105.35485933749436   ,242.13848113126042  ,182.47997301334095   ,-212.69201020551878   ,-394.82896996936586 ,-6.103236442623066      ,-212.62225339329268 ,          0.0 ,          0.0 ,-212.48669225171855  ,-395.0342714269823  ,-212.62225339329268 ,-820.1432170719936  ,105.35485933749436   ,273.3810446026547    ,182.47997301334095   ,-1.608331835677824e-06  ,-2.4358288931234948e-05 ,-3.5846250508589757e-06 ,      0.0 ,      0.0 ,      0.0 ,-1.4658900385028967e-06 ,-2.4500729920336656e-05 ,      0.0 ,-2.5966623202249238e-05 ,1.375226468459245e-05  ,0.599901295114576    ,1.0                     ,-0.0022673724536269343  ,3.636980636272598e-06   ,0.0                    ,0.00226738410612856    ,0.0 ,-31.242580039514152   ,-31.242580039514152     ,        0.0 ,        0.0 , 0.0
 0.0 ,0.0 ,           0.0 ,            0.0 ,            0.0 ,            0.0 ,              0.0 ,                   0.0 , 176.0 ,32.3117  ,-21.75862 ,           0.0 ,           0.0 ,       0.0 ,-30.483        ,-18.71032   ,0.01885642       ,0.000155233      ,                 0.0 ,             0.0 ,             0.0 ,                 0.0 ,                 0.0 ,        0.0 ,0.5040080598006841     ,            0.0 ,            0.0 ,            0.0 ,              0.0 ,                   0.0 ,  0.0 ,0.0 ,  78.79384595647171  ,1.0                ,0.0 ,-179.08154589425283 ,-359.92236444268895 ,-5.399092789000866      ,-179.52391051543188 ,          0.0 ,          0.0 ,-178.91700228102223 ,-360.08690805591954 ,-179.52391051543188 ,-718.5277704569546  ,104.42425649148416   ,239.50922348565152  ,180.86813383301632   ,-208.4633801782204    ,-389.30424892301926 ,-5.399092789000866      ,-208.90574479939943 ,          0.0 ,          0.0 ,-208.29883656498976  ,-389.4687925362499  ,-208.90574479939943 ,-806.6733237042763  ,104.42425649148416   ,268.89110816503813   ,180.86813383301632   ,-8.352121725888153e-07  ,-9.355807029513401e-06  ,-1.4044862421079996e-06 ,      0.0 ,      0.0 ,      0.0 ,-7.777172936571931e-07  ,-9.413301908445024e-06  ,      0.0 ,-1.0191022186339322e-05 ,5.224766711421965e-06  ,0.5965590074090761   ,0.9980044163298695      ,-0.0018674308752294226  ,-0.00046429403786999747 ,5.023254694895234e-06  ,-0.03178436446345317   ,0.0 ,-29.348060890860197   ,-29.348060890860197     ,        0.0 ,        0.0 , 0.0
 0.0 ,0.0 ,           0.0 ,            0.0 ,            0.0 ,            0.0 ,              0.0 ,                   0.0 , 177.0 ,34.26338 ,-21.46609 ,           0.0 ,           0.0 ,       0.0 ,-27.5876       ,-18.70732   ,0.01940504       ,0.0002211006     ,                 0.0 ,             0.0 ,             0.0 ,                 0.0 ,                 0.0 ,        0.0 ,1.0089380429572543     ,            0.0 ,            0.0 ,            0.0 ,              0.0 ,                   0.0 ,  0.0 ,0.0 ,  80.12736357626962  ,1.0                ,0.0 ,-178.00165227326664 ,-357.263004723246   ,-4.646766246762408      ,-178.22754095473596 ,          0.0 ,          0.0 ,-177.88124739755875 ,-357.3834095989539  ,-178.22754095473596 ,-713.4921477462411  ,103.53682456397806   ,237.83071577874205  ,179.33101101638664   ,-204.75789963484266   ,-384.0193019638747  ,-4.646766246762408      ,-204.9838381113045  ,          0.0 ,          0.0 ,-204.6374947591347   ,-384.1397068395826  ,-204.9838381113045  ,-793.7609898309692  ,103.53682456397806   ,264.58701334532554   ,179.33101101638664   ,-1.1292360652983286e-06 ,-8.065874252575136e-06  ,-6.059418350362149e-07  ,      0.0 ,      0.0 ,      0.0 ,-1.115997328176011e-06  ,-8.07911149584768e-06   ,      0.0 ,-9.19510784116203e-06   ,4.3780318937739e-06    ,0.5963022991612767   ,0.99673223008604        ,-0.0025251205472574634  ,-0.00047198297396219575 ,8.2255837266214e-06    ,-0.052664569849569645  ,0.0 ,-26.700956856858667   ,-26.700956856858667     ,        0.0 ,        0.0 , 0.0
 0.0 ,0.0 ,           0.0 ,            0.0 ,            0.0 ,            0.0 ,              0.0 ,                   0.0 , 178.0 ,36.21865 ,-21.15751 ,           0.0 ,           0.0 ,       0.0 ,-24.53293      ,-18.70422   ,0.01908639       ,0.0005231658     ,                 0.0 ,             0.0 ,             0.0 ,                 0.0 ,                 0.0 ,        0.0 ,1.4967644137401697     ,            0.0 ,            0.0 ,            0.0 ,              0.0 ,                   0.0 ,  0.0 ,0.0 ,  80.9108327746836   ,1.0                ,0.0 ,-177.29964791933278 ,-356.03936209764845 ,-4.037304360927317      ,-177.2476293098993  ,          0.0 ,          0.0 ,-177.20622251836014 ,-356.1327874986211  ,-177.2476293098993  ,-710.5866393268806  ,103.29177771946898   ,236.8622129715893   ,178.9066132891291    ,-199.92573093814886   ,-378.6654448814599  ,-4.037304360927317      ,-199.87376200515672 ,          0.0 ,          0.0 ,-199.83235539072572  ,-378.75887028243255 ,-199.87376200515672 ,-778.464937589761   ,103.29177771946898   ,259.4882957554008    ,178.9066132891291    ,-1.559708521333226e-06  ,-1.6674281865290934e-05 ,-1.4085930268617055e-06 ,      0.0 ,      0.0 ,      0.0 ,-1.5268296449875545e-06 ,-1.6707157614166386e-05 ,      0.0 ,-1.823398765047928e-05  ,9.24507817450701e-06   ,0.5949746765381347   ,1.0                     ,-0.0028539717258131985  ,-1.3185911085288005e-05 ,0.0                    ,0.0028540027469294194  ,0.0 ,-22.626107766645475   ,-22.626107766645475     ,        0.0 ,        0.0 , 0.0
 0.0 ,0.0 ,           0.0 ,            0.0 ,            0.0 ,            0.0 ,              0.0 ,                   0.0 , 179.0 ,38.17972 ,-20.81652 ,           0.0 ,           0.0 ,       0.0 ,-21.15526      ,-18.70099   ,0.0197595        ,0.001360825      ,                 0.0 ,             0.0 ,             0.0 ,                 0.0 ,                 0.0 ,        0.0 ,1.0065034460835516     ,            0.0 ,            0.0 ,            0.0 ,              0.0 ,                   0.0 ,  0.0 ,0.0 ,  81.02875728924604  ,1.0                ,0.0 ,-176.13355393216568 ,-353.7995589601187  ,-3.4329708308974722     ,-176.0180947634944  ,          0.0 ,          0.0 ,-176.06722273932098 ,-353.8658904781357  ,-176.0180947634944  ,-705.951207980951   ,102.6668897589577    ,235.31705235954715  ,177.8243008778869    ,-195.1338804827255    ,-372.7998364129882  ,-3.4329708308974722     ,-195.01842098888193 ,          0.0 ,          0.0 ,-195.06755044415547  ,-372.86616760583297 ,-195.01842098888193 ,-762.9520887869053  ,102.6668897589577    ,254.31732981241663   ,177.8243008778869    ,-8.994149801606745e-07  ,-1.7530720927202108e-05 ,-1.343942305834525e-06  ,      0.0 ,      0.0 ,      0.0 ,-8.709809965545356e-07  ,-1.7559156521552798e-05 ,      0.0 ,-1.8430135268199018e-05 ,9.896007462982621e-06  ,0.5962764668013628   ,0.9967297946261995      ,-0.0021782787387082817  ,-1.2443785498261829e-05 ,1.8482800272899984e-05 ,-0.09175219072428352   ,0.0 ,-18.90637321592072    ,-18.90637321592072      ,        0.0 ,        0.0 , 0.0
 0.0 ,0.0 ,           0.0 ,            0.0 ,            0.0 ,            0.0 ,              0.0 ,                   0.0 , 180.0 ,40.14666 ,-20.4496  ,           0.0 ,           0.0 ,       0.0 ,-17.51938      ,-18.69767   ,0.01846954       ,0.001873018      ,                 0.0 ,             0.0 ,             0.0 ,                 0.0 ,                 0.0 ,        0.0 ,2.2261671204420383     ,            0.0 ,            0.0 ,            0.0 ,              0.0 ,                   0.0 ,  0.0 ,0.0 ,  84.49691640978946  ,1.0                ,0.0 ,-174.82661226041196 ,-350.38863357356956 ,-2.6952837355903076     ,-174.4353526213105  ,          0.0 ,          0.0 ,-174.7808062144531  ,-350.43446282827    ,-174.4353526213105  ,-699.6506216640336  ,101.51382933583184   ,233.216866151764    ,175.82713382618545   ,-190.55804698018864   ,-366.1199915020878  ,-2.6952837355903076     ,-190.16673873260262 ,          0.0 ,          0.0 ,-190.51214093422976  ,-366.1657975480467  ,-190.16673873260262 ,-746.8447258233637  ,101.51382933583184   ,248.94822408028227   ,175.82713382618545   ,-7.661227437059479e-07  ,-1.6624731510757115e-05 ,-9.76509139600407e-07   ,      0.0 ,      0.0 ,      0.0 ,-7.469879602111957e-07  ,-1.664386881262347e-05  ,      0.0 ,-1.739085522189652e-05  ,9.410112082639319e-06  ,0.7888501985830132   ,0.5119563165843494      ,-0.0011184952420564612  ,-7.390243820467268e-06  ,0.001958894878825353   ,-12.218374396343247    ,0.0 ,-3.5118618217372104   ,-3.5118618217372104     ,        0.0 ,        0.0 , 0.0
 0.0 ,0.0 ,           0.0 ,            0.0 ,            0.0 ,            0.0 ,              0.0 ,                   0.0 , 181.0 ,42.12736 ,-20.17374 ,           0.0 ,           0.0 ,       0.0 ,-14.79471      ,-18.69427   ,0.01990841       ,0.002522622      ,                 0.0 ,             0.0 ,             0.0 ,                 0.0 ,                 0.0 ,        0.0 ,2.220272863658875      ,            0.0 ,            0.0 ,            0.0 ,              0.0 ,                   0.0 ,  0.0 ,0.0 ,  84.7062027565014   ,1.0                ,0.0 ,-173.6090228314061  ,-347.43728560870204 ,-1.9159554711699551     ,-172.8859561351457  ,          0.0 ,          0.0 ,-173.5836212099661  ,-347.462687230142   ,-172.8859561351457  ,-693.9322645752538  ,100.59173279122575   ,231.31074618746135  ,174.22998641856847   ,-186.88925513764724   ,-360.71744392781295 ,-1.9159554711699551     ,-186.16613909466815 ,          0.0 ,          0.0 ,-186.86377952907702  ,-360.7428455492528  ,-186.16613909466815 ,-733.7728135197167  ,100.59173279122575   ,244.59090450657226   ,174.22998641856847   ,-9.022401068745918e-08  ,-1.3447354871867134e-05 ,-1.1249430268426627e-06 ,      0.0 ,      0.0 ,      0.0 ,-6.593497812069435e-08  ,-1.3471645111221003e-05 ,      0.0 ,-1.3537580461913174e-05 ,7.76190603754497e-06   ,0.7914256487035335   ,0.5052900281940094      ,-0.0009717500504434049  ,-5.112503498208958e-05  ,0.0012428301728419505  ,-10.714225663327479    ,0.0 ,-2.5649777371454605   ,-2.5649777371454605     ,        0.0 ,        0.0 , 0.0
 0.0 ,0.0 ,           0.0 ,            0.0 ,            0.0 ,            0.0 ,              0.0 ,                   0.0 , 182.0 ,44.09813 ,-19.92553 ,           0.0 ,           0.0 ,       0.0 ,-12.34734      ,-18.69079   ,0.02298462       ,0.003615599      ,                 0.0 ,             0.0 ,             0.0 ,                 0.0 ,                 0.0 ,        0.0 ,2.0335972637930633     ,            0.0 ,            0.0 ,            0.0 ,              0.0 ,                   0.0 ,  0.0 ,0.0 ,  84.10489520671656  ,1.0                ,0.0 ,-172.2546569174636  ,-344.0184469599144  ,-1.069501715872831      ,-171.3306083787455  ,          0.0 ,          0.0 ,-172.24555237930844 ,-344.0276018602708  ,-171.3306083787455  ,-687.6037122561235  , 99.44443046045873   ,229.20122103201834  ,172.24281544469216   ,-183.59638688451125   ,-355.36017644923174 ,-1.069501715872831      ,-182.67233786806287 ,          0.0 ,          0.0 ,-183.5872315064245   ,-355.3692809873869  ,-182.67233786806287 ,-721.6289012018058  , 99.44443046045873   ,240.54295052133574   ,172.24281544469216   ,1.8962417098516032e-07  ,-9.451966113460142e-06  ,-6.576134421555326e-07  ,      0.0 ,      0.0 ,      0.0 ,2.008388658106138e-07   ,-9.463179847104197e-06  ,      0.0 ,-9.26234347053931e-06   ,5.522461144421841e-06  ,0.7971534643834268   ,0.4903055203399888      ,-0.0008332909230459698  ,-8.992158156393862e-05  ,0.001295169187477433   ,-9.675636902029364     ,0.0 ,-1.6652565143684734   ,-1.6652565143684734     ,        0.0 ,        0.0 , 0.0
 0.0 ,0.0 ,           0.0 ,            0.0 ,            0.0 ,            0.0 ,              0.0 ,                   0.0 , 183.0 ,46.05242 ,-19.68691 ,           0.0 ,           0.0 ,       0.0 ,-9.996631      ,-18.68724   ,0.02340617       ,0.003981824      ,                 0.0 ,             0.0 ,             0.0 ,                 0.0 ,                 0.0 ,        0.0 ,0.5233622490609467     ,            0.0 ,            0.0 ,            0.0 ,              0.0 ,                   0.0 ,  0.0 ,0.0 ,  85.0245581427134   ,1.0                ,0.0 ,-170.20604897017625 ,-340.25161616048376 ,-0.5364170229219731     ,-169.4791415492191  ,          0.0 ,          0.0 ,-170.20083372918708 ,-340.25683221367063 ,-169.4791415492191  ,-679.9367565795109  , 98.39170017552902   ,226.6455851888589   ,170.41937207085536   ,-179.145613281994     ,-349.1911804723015  ,-0.5364170229219731     ,-178.41865677360275 ,          0.0 ,          0.0 ,-179.1403972288071   ,-349.19639571329066 ,-178.41865677360275 ,-706.75540042753    , 98.39170017552902   ,235.58510041324257   ,170.41937207085536   ,-1.3743052561381402e-07 ,-5.800758064077532e-06  ,-5.412589532686419e-07  ,      0.0 ,      0.0 ,      0.0 ,-1.244977261037562e-07  ,-5.813693597052143e-06  ,      0.0 ,-5.938189939417997e-06  ,3.321242662544407e-06  ,0.993759956292917    ,-0.002030545579219238   ,-3.486002191988523e-05  ,0.0                     ,0.0020336704973335927  ,-8.934535338106922     ,0.0 ,0.0                   ,0.0                     ,        0.0 ,        0.0 , 0.0
 0.0 ,0.0 ,           0.0 ,            0.0 ,            0.0 ,            0.0 ,              0.0 ,                   0.0 , 184.0 ,47.99129 ,-19.45743 ,           0.0 ,           0.0 ,       0.0 ,-7.738137      ,-18.68362   ,0.004622134      ,0.008437856      ,                 0.0 ,             0.0 ,             0.0 ,                 0.0 ,                 0.0 ,        0.0 ,2.459170140120713      ,            0.0 ,            0.0 ,            0.0 ,              0.0 ,                   0.0 ,  0.0 ,0.0 ,  85.94656189307852  ,1.0                ,0.0 ,-168.1511933406074  ,-334.2617606495106  ,-0.9237994511469947     ,-166.61105740559734 ,          0.0 ,          0.0 ,-168.1436845281313  ,-334.2692694619867  ,-166.61105740559734 ,-669.0240102620737  , 96.35891487914682   ,223.00798670384899  ,166.89852811291763   ,-174.01634346716446   ,-340.1269597929529  ,-0.9237994511469947     ,-172.47620753215443 ,          0.0 ,          0.0 ,-174.00883382210037  ,-340.13441958854384 ,-172.47620753215443 ,-686.619459809157   , 96.35891487914682   ,228.87318584729132   ,166.89852811291763   ,-1.3121379374601832e-06 ,-1.395910778858033e-05  ,-5.267721634915702e-07  ,      0.0 ,      0.0 ,      0.0 ,-1.3040607336830411e-06 ,-1.3967181502894346e-05 ,      0.0 ,-1.527124571771463e-05  ,7.716846390223003e-06  ,0.944369217466431    ,-0.0020092388961240647  ,-3.6299189429258215e-05 ,0.0                     ,0.0020096366496217617  ,-5.719967828112074     ,0.0 ,0.0                   ,0.0                     ,        0.0 ,        0.0 , 0.0
 0.0 ,0.0 ,           0.0 ,            0.0 ,            0.0 ,            0.0 ,              0.0 ,                   0.0 , 185.0 ,49.91422 ,-19.25742 ,           0.0 ,           0.0 ,       0.0 ,-5.774544      ,-18.67997   ,0.01864016       ,0.004239113      ,                 0.0 ,             0.0 ,             0.0 ,                 0.0 ,                 0.0 ,        0.0 ,0.5243738221196819     ,            0.0 ,            0.0 ,            0.0 ,              0.0 ,                   0.0 ,  0.0 ,0.0 ,  89.43338457144944  ,1.0                ,0.0 ,-166.6902711149594  ,-329.5244998843716  ,0.7999740285524918      ,-164.34123791084505 ,          0.0 ,          0.0 ,-166.6775881989709  ,-329.53718280036014 ,-164.34123791084505 ,-660.5560089101759  , 94.71186674955588   ,220.18535215759795  ,164.04579478114562   ,-171.78724314996788   ,-334.62142057466247 ,0.7999740285524918      ,-169.4381604921858  ,          0.0 ,          0.0 ,-171.77451157869706  ,-334.63415294431866 ,-169.4381604921858  ,-675.8468250152016  , 94.71186674955588   ,225.28227473893872   ,164.04579478114562   ,-7.220671301352323e-07  ,-9.12116113572041e-06   ,-1.6771205472571549e-07 ,      0.0 ,      0.0 ,      0.0 ,-7.209052043816039e-07  ,-9.122319655604273e-06  ,      0.0 ,-9.843227798213319e-06  ,5.071918349140345e-06  ,0.7898763483922577   ,0.39587774612329996     ,-0.0005126312892687943  ,-1.8034634965720378e-05 ,0.001107088990225574   ,-6.556140455537285     ,0.0 ,1.836873405412403     ,1.4745323164454494      ,        0.0 ,        0.0 , 0.0
 0.0 ,0.0 ,           0.0 ,            0.0 ,            0.0 ,            0.0 ,              0.0 ,                   0.0 , 186.0 ,51.81744 ,-19.18029 ,           0.0 ,           0.0 ,       0.0 ,-5.039515      ,-18.67634   ,0.03765095       ,0.01235164       ,                 0.0 ,             0.0 ,             0.0 ,                 0.0 ,                 0.0 ,        0.0 ,0.02608857704049583    ,            0.0 ,            0.0 ,            0.0 ,              0.0 ,                   0.0 ,  0.0 ,0.0 ,  89.69891717743533  ,1.0                ,0.0 ,-166.9137841858432  ,-331.135388513435   ,1.8950313337657305      ,-165.05161790210812 ,          0.0 ,          0.0 ,-166.8916024847906  ,-331.1575702144876  ,-165.05161790210812 ,-663.1007906013863  , 95.379868410667     ,221.03359730123003  ,165.20281053363948   ,-172.32708376364002   ,-336.54858896085096 ,1.8950313337657305      ,-170.46481834952414 ,          0.0 ,          0.0 ,-172.30485271373925  ,-336.5708204434362  ,-170.46481834952414 ,-679.340541725167   , 95.379868410667     ,226.44684709749413   ,165.20281053363948   ,-1.1058243415886088e-08 ,-4.1925038999464545e-08 ,1.6224025163289974e-08  ,      0.0 ,      0.0 ,      0.0 ,-9.05620601379844e-09   ,-4.39270764015522e-08   ,      0.0 ,-5.2983282415350635e-08 ,2.3193318937695685e-08 ,0.5875917922952847   ,0.8994637963571616      ,-0.0014599341169489468  ,-6.354909048196579e-05  ,0.0                    ,0.0014613388176203032  ,0.0 ,-5.037603097678229    ,-5.413248316803119      ,        0.0 ,        0.0 , 0.0
 0.0 ,0.0 ,           0.0 ,            0.0 ,            0.0 ,            0.0 ,              0.0 ,                   0.0 , 187.0 ,53.70901 ,-19.13295 ,           0.0 ,           0.0 ,       0.0 ,-4.602509      ,-18.6727    ,0.009034626      ,0.007571735      ,                 0.0 ,             0.0 ,             0.0 ,                 0.0 ,                 0.0 ,        0.0 ,0.9902855774768992     ,            0.0 ,            0.0 ,            0.0 ,              0.0 ,                   0.0 ,  0.0 ,0.0 ,  89.46998961594834  ,1.0                ,0.0 ,-166.85827034690794 ,-334.3287486087015  ,2.230328239538247       ,-166.41772206980636 ,          0.0 ,          0.0 ,-166.82699385572772 ,-334.35997560041625 ,-166.41772206980636 ,-667.6047410254159  , 96.84393634515592   ,222.53489684821085  ,167.73865846638344   ,-172.00676271840854   ,-339.4772399890087  ,2.230328239538247       ,-171.56621345011357 ,          0.0 ,          0.0 ,-171.97548523603496  ,-339.5084669807234  ,-171.56621345011357 ,-683.050265666872   , 96.84393634515592   ,227.68343871917693   ,167.73865846638344   ,-4.884555277602473e-07  ,-3.202850465420197e-06  ,5.826934585144111e-07   ,      0.0 ,      0.0 ,      0.0 ,-4.575290384022526e-07  ,-3.2337767072808644e-06 ,      0.0 ,-3.6913060921793755e-06 ,1.7499625750092052e-06 ,0.6068323793311678   ,0.5045515938361224      ,-0.0009772823071577386  ,-4.605571521933034e-05  ,0.00042722523384207585 ,3.1195864141522844     ,0.0 ,-7.087034341727886    ,-7.0871581460204975     ,        0.0 ,        0.0 , 0.0
 0.0 ,0.0 ,           0.0 ,            0.0 ,            0.0 ,            0.0 ,              0.0 ,                   0.0 , 188.0 ,55.59535 ,-19.09354 ,           0.0 ,           0.0 ,       0.0 ,-4.245053      ,-18.66904   ,6.900464e-05     ,0.007048617      ,                 0.0 ,             0.0 ,             0.0 ,                 0.0 ,                 0.0 ,        0.0 ,2.0032460181428293     ,            0.0 ,            0.0 ,            0.0 ,              0.0 ,                   0.0 ,  0.0 ,0.0 , 300.84158810031494  ,1.0                ,0.0 ,-167.53757766474786 ,-335.1029555516491  ,2.571023734611956       ,-166.92862778968788 ,          0.0 ,          0.0 ,-167.49749384347024 ,-335.1429880623356  ,-166.92862778968788 ,-669.5691610060849  , 96.95509411477212   ,223.18971227456046  ,167.93117273440413   ,-172.657550437917     ,-340.222955128404   ,2.571023734611956       ,-172.0486518734482  ,          0.0 ,          0.0 ,-172.61751792723055  ,-340.263011821494   ,-172.0486518734482  ,-684.9292087503604  , 96.95509411477212   ,228.30973635832075   ,167.93117273440413   ,-2.622273919296146e-07  ,-1.3453532399053578e-05 ,2.0247787280780503e-06  ,      0.0 ,      0.0 ,      0.0 ,-1.8101131760529018e-07 ,-1.353474831680058e-05  ,      0.0 ,-1.3715758571524494e-05 ,7.781849285425824e-06  ,0.605416334741314    ,0.24454202575172945     ,-0.0013895436369589234  ,-8.224585298894091e-06  ,0.0005280581467900229  ,5.080453644242705      ,0.0 ,-8.141121790838273    ,-8.141121790838273      ,        0.0 ,        0.0 , 0.0
 0.0 ,0.0 ,           0.0 ,            0.0 ,            0.0 ,            0.0 ,              0.0 ,                   0.0 , 189.0 ,57.48064 ,-19.0568  ,           0.0 ,           0.0 ,       0.0 ,-3.914386      ,-18.66536   ,-0.00363341      ,0.00573548       ,                 0.0 ,             0.0 ,             0.0 ,                 0.0 ,                 0.0 ,        0.0 ,1.0195357019737517     ,            0.0 ,            0.0 ,            0.0 ,              0.0 ,                   0.0 ,  0.0 ,0.0 , 304.7151402054385   ,1.0                ,0.0 ,-167.34444820835182 ,-335.3424462940737  ,2.703479570759449       ,-166.98531140071464 ,          0.0 ,          0.0 ,-167.29992614906735 ,-335.38696835335816 ,-166.98531140071464 ,-669.6722059031401  , 97.13617131837515   ,223.22404362056108  ,168.24478097811726   ,-172.6558102414356    ,-340.6538313321303  ,2.703479570759449       ,-172.29667343379842 ,          0.0 ,          0.0 ,-172.61128818215113  ,-340.69833250583963 ,-172.29667343379842 ,-685.6063150073644  , 97.13617131837515   ,228.5354536171609    ,168.24478097811726   ,2.4005723998649897e-07  ,-1.0511081660232426e-05 ,1.4651271928575943e-06  ,      0.0 ,      0.0 ,      0.0 ,2.905885517977298e-07   ,-1.0561613059161443e-05 ,      0.0 ,-1.0271023064007007e-05 ,6.186037560065597e-06  ,0.5867079425076934   ,0.5553949686113973      ,-0.0016548412430570654  ,-1.572101023979163e-05  ,9.540303210386577e-05  ,2.069081990833189      ,0.0 ,-5.395001584460868    ,-6.444014521225979      ,        0.0 ,        0.0 , 0.0
 0.0 ,0.0 ,           0.0 ,            0.0 ,            0.0 ,            0.0 ,              0.0 ,                   0.0 , 190.0 ,59.36829 ,-19.02085 ,           0.0 ,           0.0 ,       0.0 ,-3.591847      ,-18.66166   ,-0.00759126      ,0.005108418      ,                 0.0 ,             0.0 ,             0.0 ,                 0.0 ,                 0.0 ,        0.0 ,0.9695751958707537     ,            0.0 ,            0.0 ,            0.0 ,              0.0 ,                   0.0 ,  0.0 ,0.0 , 231.18674749317148  ,1.0                ,0.0 ,-167.1450912771707  ,-335.62128779255704 ,3.32943225931297        ,-166.98257651110728 ,          0.0 ,          0.0 ,-167.07824173907682 ,-335.68813716767056 ,-166.98257651110728 ,-669.7489716860948  , 97.37495403216785   ,223.2496346322048   ,168.65834121392177   ,-171.72344530665137   ,-340.19970944853765 ,3.32943225931297        ,-171.56094680882813 ,          0.0 ,          0.0 ,-171.65661203679764  ,-340.2664913601317  ,-171.56094680882813 ,-683.4841015640172  , 97.37495403216785   ,227.82805645116585   ,168.65834121392177   ,1.652480521313062e-07   ,-1.1575168651340869e-05 ,3.1412744892274417e-07  ,      0.0 ,      0.0 ,      0.0 ,1.6993431922949371e-07  ,-1.1579855883939742e-05 ,      0.0 ,-1.140992095010269e-05  ,6.73529932524275e-06   ,0.5959534431969112   ,0.7550478226665014      ,-0.001336937418552905   ,-1.0873074459450757e-05 ,0.0                    ,0.0013371297661586578  ,0.0 ,-3.099314492207381    ,-4.578377731351717      ,        0.0 ,        0.0 , 0.0
 0.0 ,0.0 ,           0.0 ,            0.0 ,            0.0 ,            0.0 ,              0.0 ,                   0.0 , 191.0 ,61.26089 ,-18.98586 ,           0.0 ,           0.0 ,       0.0 ,-3.279185      ,-18.65795   ,-0.01311676      ,0.004528345      ,                 0.0 ,             0.0 ,             0.0 ,                 0.0 ,                 0.0 ,        0.0 ,2.018311188393367      ,            0.0 ,            0.0 ,            0.0 ,              0.0 ,                   0.0 ,  0.0 ,0.0 ,  94.48735318362995  ,1.0                ,0.0 ,-166.51281165238885 ,-335.29284864805203 ,3.7756105280323955      ,-166.72902497776744 ,          0.0 ,          0.0 ,-166.42706631131082 ,-335.3785444402598  ,-166.72902497776744 ,-668.5346852782084  , 97.45759056957284   ,222.84486175940276  ,168.80149019765486   ,-170.44616588038534   ,-339.2262019604891  ,3.7756105280323955      ,-170.6624287546341  ,          0.0 ,          0.0 ,-170.36047008817752  ,-339.3119225337819  ,-170.6624287546341  ,-680.3347965955086  , 97.45759056957284   ,226.77829030405462   ,168.80149019765486   ,-6.495214809466024e-08  ,-9.12915844535011e-06   ,7.602210506382205e-07   ,      0.0 ,      0.0 ,      0.0 ,-4.9036252308294956e-08 ,-9.14507401634209e-06   ,      0.0 ,-9.194109501551808e-06  ,5.275352773290606e-06  ,0.5673366868436842   ,0.6533809020921582      ,-0.0019503288346240833  ,7.897807584892157e-06   ,7.344709719953453e-05  ,2.2902801675631963     ,0.0 ,-4.511545965571402    ,-5.053243681547417      ,        0.0 ,        0.0 , 0.0
 0.0 ,0.0 ,           0.0 ,            0.0 ,            0.0 ,            0.0 ,              0.0 ,                   0.0 , 192.0 ,63.16288 ,-18.95036 ,           0.0 ,           0.0 ,       0.0 ,-2.961647      ,-18.6542    ,-0.02262596      ,0.004502227      ,                 0.0 ,             0.0 ,             0.0 ,                 0.0 ,                 0.0 ,        0.0 ,2.005684957194266      ,            0.0 ,            0.0 ,            0.0 ,              0.0 ,                   0.0 ,  0.0 ,0.0 ,  95.48513641275218  ,1.0                ,0.0 ,-165.2951474675911  ,-333.10692451967134 ,3.9582067408404322      ,-165.85049484293137 ,          0.0 ,          0.0 ,-165.2010787746686  ,-333.20099321259386 ,-165.85049484293137 ,-664.2525668301937  , 96.80866407443844   ,221.41750546133085  ,167.6775370948459    ,-169.60969049258648   ,-337.42141831477466 ,3.9582067408404322      ,-170.1650378679267  ,          0.0 ,          0.0 ,-169.5156217996639   ,-337.515536561496   ,-170.1650378679267  ,-677.1961962290866  , 96.80866407443844   ,225.73204848632622   ,167.6775370948459    ,-4.6998565397744314e-07 ,-3.048344973661355e-06  ,2.490453409581852e-07   ,      0.0 ,      0.0 ,      0.0 ,-4.5960088754323076e-07 ,-3.0587295924058912e-06 ,      0.0 ,-3.518330532827942e-06  ,1.6497070712013857e-06 ,0.7433268832189508   ,-0.0011342583339100298  ,-3.414837038450277e-05  ,0.0                     ,0.0011347973835749516  ,-2.0361038600398462    ,0.0 ,0.0                   ,0.0                     ,        0.0 ,        0.0 , 0.0
 0.0 ,0.0 ,           0.0 ,            0.0 ,            0.0 ,            0.0 ,              0.0 ,                   0.0 , 193.0 ,65.0746  ,-18.91599 ,           0.0 ,           0.0 ,       0.0 ,-2.655794      ,-18.65041   ,-0.03915489      ,0.003770354      ,                 0.0 ,             0.0 ,             0.0 ,                 0.0 ,                 0.0 ,        0.0 ,2.986998556210561      ,            0.0 ,            0.0 ,            0.0 ,              0.0 ,                   0.0 ,  0.0 ,0.0 ,  96.46386626940419  ,1.0                ,0.0 ,-164.25171732943954 ,-329.4997733969475  ,3.936555303379182       ,-164.31184634906646 ,          0.0 ,          0.0 ,-164.15795043995024 ,-329.59354028643685 ,-164.31184634906646 ,-658.0633357753093  , 95.4701337194279    ,219.35441279186597  ,165.3591582475155    ,-168.75313531074784   ,-334.00124095291164 ,3.936555303379182       ,-168.81326433037475 ,          0.0 ,          0.0 ,-168.6593684212585   ,-334.09500784240095 ,-168.81326433037475 ,-671.5676405940342  , 95.4701337194279    ,223.85588034783007   ,165.3591582475155    ,9.442294217985103e-08   ,-6.262702048019403e-06  ,2.226570696307406e-06   ,      0.0 ,      0.0 ,      0.0 ,3.796653591875801e-07   ,-6.547943674432927e-06  ,      0.0 ,-6.168279411040129e-06  ,3.895679044603304e-06  ,0.7792568088128317   ,-0.0033701408944310433  ,-4.564505923038526e-06  ,0.0                     ,0.003370147786148713   ,-2.8750552058339096    ,0.0 ,0.0                   ,0.0                     ,        0.0 ,        0.0 , 0.0
 0.0 ,0.0 ,           0.0 ,            0.0 ,            0.0 ,            0.0 ,              0.0 ,                   0.0 , 194.0 ,66.99311 ,-18.88622 ,           0.0 ,           0.0 ,       0.0 ,-2.396325      ,-18.64659   ,-0.06296907      ,0.004212542      ,                 0.0 ,             0.0 ,             0.0 ,                 0.0 ,                 0.0 ,        0.0 ,1.478732449934897      ,            0.0 ,            0.0 ,            0.0 ,              0.0 ,                   0.0 ,  0.0 ,0.0 ,  97.49804899647468  ,1.0                ,0.0 ,-163.7478107558981  ,-325.9612603177894  ,3.318483351699319       ,-162.88311174433403 ,          0.0 ,          0.0 ,-163.6791205143101  ,-326.0299505593774  ,-162.88311174433403 ,-652.5921336525656  , 93.96491948280323   ,217.53071152263314  ,162.7520039031383    ,-166.94084265516113   ,-329.15424267471934 ,3.318483351699319       ,-166.0761436435971  ,          0.0 ,          0.0 ,-166.87215241357316  ,-329.22293291630734 ,-166.0761436435971  ,-662.1711794311445  , 93.96491948280323   ,220.7237434218962    ,162.7520039031383    ,-7.321068498005288e-07  ,-1.1191528431105173e-05 ,7.312620773906103e-07   ,      0.0 ,      0.0 ,      0.0 ,-6.833295501204908e-07  ,-1.1240306968589786e-05 ,      0.0 ,-1.1923637656299552e-05 ,6.314359722819717e-06  ,0.7401824705588449   ,0.005408688018033692    ,-7.282837201490104e-06  ,-6.32708990234161e-08   ,0.0012851046902815034  ,-0.9409381517179485    ,0.0 ,0.10668935461338265   ,0.05526619497529202     ,        0.0 ,        0.0 , 0.0
 0.0 ,0.0 ,           0.0 ,            0.0 ,            0.0 ,            0.0 ,              0.0 ,                   0.0 , 195.0 ,68.8994  ,-18.88535 ,           0.0 ,           0.0 ,       0.0 ,-2.425817      ,-18.64277   ,-0.1094166       ,-0.0005537075    ,                 0.0 ,             0.0 ,             0.0 ,                 0.0 ,                 0.0 ,        0.0 ,0.7471841433852145     ,            0.0 ,            0.0 ,            0.0 ,              0.0 ,                   0.0 ,  0.0 ,0.0 ,  98.76592414613235  ,1.0                ,0.0 ,-164.53618486733805 ,-316.25109587185597 ,1.3849251240134905      ,-159.38173574963983 ,          0.0 ,          0.0 ,-164.4483878711926  ,-316.3388928680014  ,-159.38173574963983 ,-640.1690164888338  , 89.22083909751011   ,213.38967263484423  ,154.5349994056376    ,-168.23175905952252   ,-319.94664619815364 ,1.3849251240134905      ,-163.0773099418243  ,          0.0 ,          0.0 ,-168.14396206337707  ,-320.03444319429906 ,-163.0773099418243  ,-651.2556913336135  , 89.22083909751011   ,217.0852468270287    ,154.5349994056376    ,-8.847938223270248e-07  ,-7.662762782342913e-06  ,1.6154903087820671e-07  ,      0.0 ,      0.0 ,      0.0 ,-8.837916368822134e-07  ,-7.663766533753673e-06  ,      0.0 ,-8.547557837433936e-06  ,4.213081494359589e-06  ,0.7849602312343195   ,0.2612225326359896      ,-0.00016333515700502557 ,-2.482823136048749e-06  ,0.0014496509586428784  ,-5.864141262940013     ,0.0 ,4.186613468321062     ,2.16870930623656        ,        0.0 ,        0.0 , 0.0
 0.0 ,0.0 ,           0.0 ,            0.0 ,            0.0 ,            0.0 ,              0.0 ,                   0.0 , 196.0 ,70.74521 ,-18.99227 ,           0.0 ,           0.0 ,       0.0 ,-3.532488      ,-18.63902   ,-0.172498        ,0.01530604       ,                 0.0 ,             0.0 ,             0.0 ,                 0.0 ,                 0.0 ,        0.0 ,1.7500936995928447     ,            0.0 ,            0.0 ,            0.0 ,              0.0 ,                   0.0 ,  0.0 ,0.0 ,  98.65296650408698  ,1.0                ,0.0 ,-168.75492835157036 ,-308.71731838161736 ,3.2411640168219087      ,-157.33439510285754 ,          0.0 ,          0.0 ,-168.0436759632536  ,-309.42859555544237 ,-157.33439510285754 ,-634.8066418360452  , 84.91572558453564   ,211.60221372773339  ,147.07834406328033   ,-173.26810991358036   ,-313.2304999436273  ,3.2411640168219087      ,-161.84755187935923 ,          0.0 ,          0.0 ,-172.5568327397553   ,-313.9417523319441  ,-161.84755187935923 ,-648.3461617365668  , 84.91572558453564   ,216.11537050423507   ,147.07834406328033   ,-1.6224864443196593e-06 ,-7.310810152245039e-06  ,8.107594354580755e-07   ,      0.0 ,      0.0 ,      0.0 ,-1.4993065246269564e-06 ,-7.433992137044211e-06  ,      0.0 ,-8.933297174185447e-06  ,3.943769687382515e-06  ,0.8211937494091504   ,0.12659815995620333     ,-0.0001011798939852634  ,-1.2186017482394366e-06 ,0.0023252222062553466  ,-5.208438825232156     ,0.0 ,2.054844107751478     ,1.0644306127293626      ,        0.0 ,        0.0 , 0.0
 0.0 ,0.0 ,           0.0 ,            0.0 ,            0.0 ,            0.0 ,              0.0 ,                   0.0 , 197.0 ,72.49349 ,-19.0882  ,           0.0 ,           0.0 ,       0.0 ,-4.528449      ,-18.63535   ,-0.03022918      ,-0.006825384     ,                 0.0 ,             0.0 ,             0.0 ,                 0.0 ,                 0.0 ,        0.0 ,2.5075959351838217     ,            0.0 ,            0.0 ,            0.0 ,              0.0 ,                   0.0 ,  0.0 ,0.0 ,  49.3831035637419   ,1.0                ,0.0 ,-172.87525265569948 ,-317.34174058937646 ,12.97013891977663       ,-161.54717791768064 ,          0.0 ,          0.0 ,-169.9140770829537  ,-320.30291841727626 ,-161.54717791768064 ,-651.7641711627566  , 89.36469018845105   ,217.25469189102154  ,154.78418237335194   ,-177.62314895673484   ,-322.08963689041184 ,12.97013891977663       ,-166.295071963562   ,          0.0 ,          0.0 ,-174.6619711288351   ,-325.0507639587181  ,-166.295071963562   ,-666.0078093062692  , 89.36469018845105   ,222.0025859369029    ,154.78418237335194   ,-1.8015102849442133e-06 ,-8.153911089669917e-06  ,1.6916544991713391e-06  ,      0.0 ,      0.0 ,      0.0 ,-1.4800010080174225e-06 ,-8.475422447658558e-06  ,      0.0 ,-9.955422164810294e-06  ,4.548811008163765e-06  ,0.8910015978157431   ,-0.0032027622887195635  ,-1.554950078212042e-05  ,0.0                     ,0.003203482878603111   ,-4.315909151422846     ,0.0 ,0.0                   ,0.0                     ,        0.0 ,        0.0 , 0.0
 0.0 ,0.0 ,           0.0 ,            0.0 ,            0.0 ,            0.0 ,              0.0 ,                   0.0 , 198.0 ,73.07627 ,-17.24408 ,           0.0 ,           0.0 ,       0.0 ,13.89916       ,-18.634     ,0.1415972        ,-0.005225586     ,                 0.0 ,             0.0 ,             0.0 ,                 0.0 ,                 0.0 ,        0.0 ,2.9750440359578936     ,            0.0 ,            0.0 ,            0.0 ,              0.0 ,                   0.0 ,  0.0 ,0.0 , 106.26575719977245  ,1.0                ,0.0 ,-165.3566917238178  ,-307.8935254674708  ,21.972554232509623      ,-156.13992290953178 ,          0.0 ,          0.0 ,-162.01955379900355 ,-311.2307121685298  ,-156.13992290953178 ,-629.3901401008204  , 88.0276997466508    ,209.79674586840798  ,152.46848503658475   ,-161.13270211351642   ,-303.6695383527658  ,21.972554232509623      ,-151.91588701858205 ,          0.0 ,          0.0 ,-157.7955179080538   ,-307.00667378198364 ,-151.91588701858205 ,-616.7181249892678  , 88.0276997466508    ,205.5727074818618    ,152.46848503658475   ,-6.767495913398157e-07  ,-1.982815043955171e-06  ,2.0508810888228554e-06  ,      0.0 ,      0.0 ,      0.0 ,6.67051764831806e-08    ,-2.726269800281027e-06  ,      0.0 ,-2.659564677678853e-06  ,1.5948078158296332e-06 ,0.46080934629798237  ,-0.0009881672623124707  ,1.8790896768916065e-05  ,0.0                     ,0.0009883928743567743  ,13.40386898783322      ,0.0 ,0.0                   ,0.0                     ,        0.0 ,        0.0 , 0.0
 0.0 ,0.0 ,           0.0 ,            0.0 ,            0.0 ,            0.0 ,              0.0 ,                   0.0 , 199.0 ,74.05139 ,-15.57093 ,           0.0 ,           0.0 ,       0.0 ,30.60738       ,-18.63167   ,0.1410774        ,-0.0006090089    ,                 0.0 ,             0.0 ,             0.0 ,                 0.0 ,                 0.0 ,        0.0 ,3.466140514387294      ,            0.0 ,            0.0 ,            0.0 ,              0.0 ,                   0.0 ,  0.0 ,0.0 , 102.23581578016339  ,1.0                ,0.0 ,-145.96957034239756 ,-291.4586560858415  ,23.225624940641715      ,-145.74822071344167 ,          0.0 ,          0.0 ,-142.34080930479013 ,-295.0874647768812  ,-145.74822071344167 ,-583.176494795113   , 87.22391930386173   ,194.39219791857738  ,151.07626480138498   ,-141.05678821219024   ,-286.54587499501497 ,23.225624940641715      ,-140.83543962261513 ,          0.0 ,          0.0 ,-137.42802821396356  ,-290.1746349932416  ,-140.83543962261513 ,-568.4381017904395  , 87.22391930386173   ,189.47936813493783   ,151.07626480138498   ,-1.7361182843276766e-06 ,-1.972610527631084e-07  ,1.3972801000412712e-06  ,      0.0 ,      0.0 ,      0.0 ,1.649438165988802e-07   ,-2.0983232491251367e-06 ,      0.0 ,-1.933379579644076e-06  ,1.26187838750258e-06   ,0.4057069061402989   ,0.05596537826838699     ,-3.1892127769407432e-06 ,-8.168169978349353e-08  ,3.795424735468446e-05  ,11.063795058325441     ,0.0 ,20.1337418976705      ,2.3661601730007003      ,        0.0 ,        0.0 , 0.0
 0.0 ,0.0 ,           0.0 ,            0.0 ,            0.0 ,            0.0 ,              0.0 ,                   0.0 , 200.0 ,75.40509 ,-14.21779 ,           0.0 ,           0.0 ,       0.0 ,44.10803       ,-18.62859   ,0.1348105        ,0.008474815      ,                 0.0 ,             0.0 ,             0.0 ,                 0.0 ,                 0.0 ,        0.0 ,2.3903422437070843     ,            0.0 ,            0.0 ,            0.0 ,              0.0 ,                   0.0 ,  0.0 ,0.0 , 531.0432844350121   ,1.0                ,0.0 ,-125.55728315037405 ,-269.12928128411926 ,17.279482746951224      ,-133.14962394794054 ,          0.0 ,          0.0 ,-123.50042651335846 ,-271.18614327295995 ,-133.14962394794054 ,-527.8361937342589  , 82.62552691916896   ,175.9453902518366   ,143.11161567524553   ,-120.60089912650785   ,-264.1728309426524  ,17.279482746951224      ,-128.19323992407436 ,          0.0 ,          0.0 ,-118.54404248949228  ,-266.22968757966794 ,-128.19323992407436 ,-512.9669699932347  , 82.62552691916896   ,170.98900087614533   ,143.11161567524553   ,-1.9969178385556363e-06 ,1.1728875321534523e-08  ,1.4807069176252285e-06  ,      0.0 ,      0.0 ,      0.0 ,2.786367273101968e-07   ,-2.2638257412489382e-06 ,      0.0 ,-1.9851891342988436e-06 ,1.394676325778798e-06  ,0.5092871310763408   ,0.06837761257161297     ,-2.6493825058083565e-06 ,-2.945090343415503e-07  ,1.2717470113270861e-05 ,7.128439479427097      ,0.0 ,37.515966106651504    ,3.567046958206162       ,        0.0 ,        0.0 , 0.0
 0.0 ,0.0 ,           0.0 ,            0.0 ,            0.0 ,            0.0 ,              0.0 ,                   0.0 , 201.0 ,79.7246  ,-12.20358 ,           0.0 ,           0.0 ,       0.0 ,64.13966       ,-18.61755   ,0.008287737      ,0.01232342       ,                 0.0 ,             0.0 ,             0.0 ,                 0.0 ,                 0.0 ,        0.0 ,2.2976215199007823     ,            0.0 ,            0.0 ,            0.0 ,              0.0 ,                   0.0 ,  0.0 ,0.0 , 630.4897846431697   ,1.0                ,0.0 ,-97.72697155368989  ,-237.3879821284678  ,1.3763664738576664      ,-114.9678379230356  ,          0.0 ,          0.0 ,-97.68787039185372  ,-237.42710201257614 ,-114.9678379230356  ,-450.0828118155731  , 76.18590596390521   ,150.02762770177333  ,131.95784595507573   ,-92.74499195605445    ,-232.4060055070475  ,1.3763664738576664      ,-109.98587258334953 ,          0.0 ,          0.0 ,-92.70589643508535   ,-232.4451253911559  ,-109.98587258334953 ,-435.13685324105927 , 76.18590596390521   ,145.04565108035308   ,131.95784595507573   ,-2.984382538083015e-06  ,5.278776683739421e-07   ,8.315872698785706e-07   ,      0.0 ,      0.0 ,      0.0 ,6.027132372180713e-07   ,-3.0592183357175246e-06 ,      0.0 ,-2.4565047548680607e-06 ,1.9639103684682587e-06 ,0.24704416140128793  ,0.033795580806819166    ,-2.363634760946012e-06  ,-3.0889476092672145e-07 ,1.0786180558430215e-06 ,53.019791869078        ,0.0 ,12.109924443063056    ,1.4255321070090934      ,        0.0 ,        0.0 , 0.0
 0.0 ,0.0 ,           0.0 ,            0.0 ,            0.0 ,            0.0 ,              0.0 ,                   0.0 , 202.0 ,81.92609 ,-12.54321 ,           0.0 ,           0.0 ,       0.0 ,60.68669       ,-18.61188   ,-0.1134571       ,-0.01476439      ,                 0.0 ,             0.0 ,             0.0 ,                 0.0 ,                 0.0 ,        0.0 ,2.4166708428573638     ,            0.0 ,            0.0 ,            0.0 ,              0.0 ,                   0.0 ,  0.0 ,0.0 , 120.47703807356652  ,1.0                ,0.0 ,-102.3827873537884  ,-242.35864511685492 ,-5.575945816431638      ,-117.85071330167341 ,          0.0 ,          0.0 ,-102.09949747392324 ,-242.641958492341   ,-117.85071330167341 ,-462.5921713322981  , 77.00607807393143   ,154.19740425888966  ,133.3784165612148    ,-97.40012909400664    ,-237.3759954926268  ,-5.575945816431638      ,-112.8680120554048  ,          0.0 ,          0.0 ,-97.11683886746204   ,-237.65930886811282 ,-112.8680120554048  ,-447.64417083757314 , 77.00607807393143   ,149.2147546346615    ,133.3784165612148    ,-2.9959321056760097e-06 ,3.463185389357577e-07   ,-2.770411787681818e-07  ,      0.0 ,      0.0 ,      0.0 ,3.76326960285902e-07    ,-3.0259408377148025e-06 ,      0.0 ,-2.6496137697616193e-06 ,1.8679614242212992e-06 ,0.08204743997367289  ,-1.7297636091686093e-06 ,-7.435930213058993e-07  ,0.0                     ,1.882947759164428e-06  ,62.527975083921774     ,0.0 ,0.0                   ,0.0                     ,        0.0 ,        0.0 , 0.0
 0.0 ,0.0 ,           0.0 ,            0.0 ,            0.0 ,            0.0 ,              0.0 ,                   0.0 , 203.0 ,84.28716 ,-13.06126 ,           0.0 ,           0.0 ,       0.0 ,55.44523       ,-18.60579   ,-0.2282996       ,0.003234655      ,                 0.0 ,             0.0 ,             0.0 ,                 0.0 ,                 0.0 ,        0.0 ,0.8990609360979817     ,            0.0 ,            0.0 ,            0.0 ,              0.0 ,                   0.0 ,  0.0 ,0.0 , 181.44680740471625  ,1.0                ,0.0 ,-112.60708941462215 ,-248.21543283321796 ,-11.77159986233139      ,-122.03989733198694 ,          0.0 ,          0.0 ,-111.40968151268842 ,-249.41289189332625 ,-122.03989733198694 ,-482.8624124382152  , 76.82744461057908   ,160.95413152806185  ,133.0690024021573    ,-107.62969352590305   ,-243.2380351590959  ,-11.77159986233139      ,-117.06246331386018 ,          0.0 ,          0.0 ,-106.43223803660067  ,-244.4354484172385  ,-117.06246331386018 ,-467.93013726987857 , 76.82744461057908   ,155.97673385393978   ,133.0690024021573    ,-9.964185783395918e-07  ,1.0709635677922767e-07  ,2.6816872481594104e-07  ,      0.0 ,      0.0 ,      0.0 ,2.1318504144692648e-07  ,-1.1025072457892064e-06 ,      0.0 ,-8.893223490823532e-07  ,7.154147475678538e-07  ,0.3250705935520337   ,0.04846105188745063     ,-2.2794762210866743e-06 ,-5.821342813697315e-07  ,1.247051015514413e-06  ,34.490047211067484     ,0.0 ,21.522398633557422    ,2.2772430460986066      ,        0.0 ,        0.0 , 0.0
 0.0 ,0.0 ,           0.0 ,            0.0 ,            0.0 ,            0.0 ,              0.0 ,                   0.0 , 204.0 ,86.13537 ,-16.05622 ,           0.0 ,           0.0 ,       0.0 ,25.45879       ,-18.6021    ,-0.07753205      ,-0.004015952     ,                 0.0 ,             0.0 ,             0.0 ,                 0.0 ,                 0.0 ,        0.0 ,1.586665855295811      ,            0.0 ,            0.0 ,            0.0 ,              0.0 ,                   0.0 ,  0.0 ,0.0 ,  57.8773782707582   ,1.0                ,0.0 ,-151.38332106909533 ,-299.7888472490945  ,-22.503308112175368     ,-150.1375058314994  ,          0.0 ,          0.0 ,-148.03729388620474 ,-303.1348499511513  ,-150.1375058314994  ,-601.3096154831037  , 88.96296555021085   ,200.4365189388394   ,154.0883870611442    ,-146.4825595847338    ,-294.88806128389916 ,-22.503308112175368     ,-145.2367443471379  ,          0.0 ,          0.0 ,-143.13653240184317  ,-298.2340884667898  ,-145.2367443471379  ,-586.6073310300192  , 88.96296555021085   ,195.53575745447785   ,154.0883870611442    ,-1.761392913133684e-06  ,5.237199959367348e-07   ,5.488117287104797e-07   ,      0.0 ,      0.0 ,      0.0 ,6.571075094536786e-07   ,-1.8947802944980288e-06 ,      0.0 ,-1.237672641677783e-06  ,1.3274101129869529e-06 ,0.6008936376883083   ,0.19341693992230508     ,-3.33647187409089e-05   ,-3.2757277520722135e-06 ,0.0                    ,3.360722830193572e-05  ,0.0 ,26.76830984374486     ,4.9007591153884285      ,        0.0 ,        0.0 , 0.0
 0.0 ,0.0 ,           0.0 ,            0.0 ,            0.0 ,            0.0 ,              0.0 ,                   0.0 , 205.0 ,86.95893 ,-17.44024 ,           0.0 ,           0.0 ,       0.0 ,11.59896       ,-18.60013   ,-0.131205        ,-0.005179598     ,                 0.0 ,             0.0 ,             0.0 ,                 0.0 ,                 0.0 ,        0.0 ,1.2099444473560994     ,            0.0 ,            0.0 ,            0.0 ,              0.0 ,                   0.0 ,  0.0 ,0.0 ,  58.16261135591674  ,1.0                ,0.0 ,-167.49889257829938 ,-312.7997648899518  ,-24.631691607871005     ,-158.24758192376763 ,          0.0 ,          0.0 ,-163.38470001413378 ,-316.913905532813   ,-158.24758192376763 ,-638.5461960466323  , 90.17774774669198   ,212.84873073467452  ,156.19241810574493   ,-163.67672328288737   ,-308.97756082507135 ,-24.631691607871005     ,-154.42542120427356 ,          0.0 ,          0.0 ,-159.56253929463975  ,-313.0916967346234  ,-154.42542120427356 ,-627.0797053122322  , 90.17774774669198   ,209.02657001518048   ,156.19241810574493   ,-8.844006106148423e-07  ,-2.995582670996209e-07  ,5.318496230667181e-07   ,      0.0 ,      0.0 ,      0.0 ,1.530316146630042e-07   ,-1.336990449963674e-06  ,      0.0 ,-1.1839587910236902e-06 ,8.751368786126168e-07  ,0.6941557409288621   ,0.14614976941848984     ,-0.00019285327199953232 ,-6.096738306398849e-06  ,0.0007818740176221412  ,1.671606816696107      ,0.0 ,10.409415439095252    ,2.449809940143019       ,        0.0 ,        0.0 , 0.0
 0.0 ,0.0 ,           0.0 ,            0.0 ,            0.0 ,            0.0 ,              0.0 ,                   0.0 , 206.0 ,87.55573 ,-19.15394 ,           0.0 ,           0.0 ,       0.0 ,-5.547576      ,-18.59918   ,0.02841899       ,-0.006675661     ,                 0.0 ,             0.0 ,             0.0 ,                 0.0 ,                 0.0 ,        0.0 ,3.377938724674471      ,            0.0 ,            0.0 ,            0.0 ,              0.0 ,                   0.0 ,  0.0 ,0.0 , 496.94876842711574  ,0.9999999999999999 ,0.0 ,-179.76097285246084 ,-319.7378118762917  ,-26.22836666372926      ,-163.42920026530254 ,          0.0 ,          0.0 ,-172.58939975974707 ,-326.90931026279037 ,-163.42920026530254 ,-662.9279597002701  , 91.99155435425016   ,220.9759571062759   ,159.334081245192     ,-185.5455579646869    ,-325.5224600761752  ,-26.22836666372926      ,-169.21386008374367 ,          0.0 ,          0.0 ,-178.37405957818817  ,-332.6939584626739  ,-169.21386008374367 ,-680.2819034183906  , 91.99155435425016   ,226.76063059994436   ,159.334081245192     ,-2.68065606102374e-06   ,-8.539729692359396e-06  ,-1.8794269643537215e-06 ,      0.0 ,      0.0 ,      0.0 ,-2.2359369528691954e-06 ,-8.984449686435291e-06  ,      0.0 ,-1.1220385479878589e-05 ,4.7384070695614595e-06 ,0.5908454176955369   ,0.7668304785583314      ,-0.0023175703168524793  ,-0.000194619268387237   ,0.0                    ,0.0023267546186630478  ,0.0 ,-4.349045296978629    ,-5.784647210522774      ,        0.0 ,        0.0 , 0.0
 0.0 ,0.0 ,           0.0 ,            0.0 ,            0.0 ,            0.0 ,              0.0 ,                   0.0 , 207.0 ,76.94615 ,-13.16575 ,           0.0 ,           0.0 ,       0.0 ,54.5915        ,-18.6249    ,0.1255898        ,0.004208562      ,                 0.0 ,             0.0 ,             0.0 ,                 0.0 ,                 0.0 ,        0.0 ,2.011347919872172      ,            0.0 ,            0.0 ,            0.0 ,              0.0 ,                   0.0 ,  0.0 ,0.0 ,  91.40920377173603  ,1.0                ,0.0 ,-111.19506651000776 ,-253.54211701241965 ,10.936641109569344      ,-123.98306320558856 ,          0.0 ,          0.0 ,-110.35040776606053 ,-254.3867874027129  ,-123.98306320558856 ,-488.72033175378385 , 79.52132547066633   ,162.90675179563783  ,137.73494816239017   ,-106.21873021720069   ,-248.56571437339005 ,10.936641109569344      ,-119.00665111330709 ,          0.0 ,          0.0 ,-105.37407147325347  ,-249.41043693002808 ,-119.00665111330709 ,-473.79117600303977 , 79.52132547066633   ,157.93042495608262   ,137.73494816239017   ,-2.5203892797315534e-06 ,2.918035852478065e-07   ,1.3141552240594209e-06  ,      0.0 ,      0.0 ,      0.0 ,4.427198903035202e-07   ,-2.671305024729418e-06  ,      0.0 ,-2.228585669354908e-06  ,1.6857146599039213e-06 ,0.24123212199290756  ,0.014621996585155686    ,-7.278937829741211e-07  ,-8.383326201340056e-08  ,3.6151202510293643e-06 ,35.512531554681324     ,0.0 ,19.986217167201957    ,1.2078145437988947      ,        0.0 ,        0.0 , 0.0
 0.0 ,0.0 ,           0.0 ,            0.0 ,            0.0 ,            0.0 ,              0.0 ,                   0.0 , 208.0 ,85.44125 ,-14.59005 ,           0.0 ,           0.0 ,       0.0 ,40.1329        ,-18.60334   ,-0.1156905       ,-0.003009117     ,                 0.0 ,             0.0 ,             0.0 ,                 0.0 ,                 0.0 ,        0.0 ,0.6277945874894898     ,            0.0 ,            0.0 ,            0.0 ,              0.0 ,                   0.0 ,  0.0 ,0.0 , 151.79482325812523  ,1.0                ,0.0 ,-132.147681492483   ,-275.4492574309882  ,-18.17716635653409      ,-136.73012911862807 ,          0.0 ,          0.0 ,-129.8531236667347  ,-277.7438799401999  ,-136.73012911862807 ,-544.3270680420993  , 83.47978424862315   ,181.44236516834047  ,144.59121047755553   ,-127.1856972889135    ,-270.48727322741877 ,-18.17716635653409      ,-131.76814491505857 ,          0.0 ,          0.0 ,-124.89110224262397  ,-272.78185851608913 ,-131.76814491505857 ,-529.4410782108496  , 83.47978424862315   ,176.480380964771     ,144.59121047755553   ,-1.2688627549777888e-06 ,2.2076754586290986e-07  ,-3.6046982593779157e-07 ,      0.0 ,      0.0 ,      0.0 ,2.425082920213894e-07   ,-1.2906034619176528e-06 ,      0.0 ,-1.0480950207765025e-06 ,8.252023434706806e-07  ,0.4747993022510446   ,0.09013899245824022     ,-4.650657119537212e-06  ,-1.2572156684836847e-06 ,1.2149371559074046e-06 ,11.785626795917889     ,0.0 ,29.648793070204448    ,3.5980743894998524      ,        0.0 ,        0.0 , 0.0
 0.0 ,0.0 ,           0.0 ,            0.0 ,            0.0 ,            0.0 ,              0.0 ,                   0.0 , 209.0 ,87.46834 ,-15.04731 ,           0.0 ,           0.0 ,       0.0 ,35.50237       ,-18.59754   ,-0.1551286       ,-0.0007786729    ,                 0.0 ,             0.0 ,             0.0 ,                 0.0 ,                 0.0 ,        0.0 ,2.2649917432150586     ,            0.0 ,            0.0 ,            0.0 ,              0.0 ,                   0.0 ,  0.0 ,0.0 , 175.80925733723936  ,1.0                ,0.0 ,-142.2489031945043  ,-275.3481828392487  ,-18.743920456181918     ,-138.4024920784217  ,          0.0 ,          0.0 ,-139.63812244643412 ,-277.9589740971552  ,-138.4024920784217  ,-555.9995429523408  , 80.23241606840507   ,185.33318448739237  ,138.96661145931716   ,-137.31300879275366   ,-270.41225327766415 ,-18.743920456181918     ,-133.46659767667103 ,          0.0 ,          0.0 ,-134.7022280446835   ,-273.02307969540453 ,-133.46659767667103 ,-541.1918597470889  , 80.23241606840507   ,180.3972900856417    ,138.96661145931716   ,-4.999208171442155e-07  ,3.7791817899683104e-07  ,2.1599220390006995e-06  ,      0.0 ,      0.0 ,      0.0 ,1.5204769986546644e-06  ,-1.6424797559725447e-06 ,      0.0 ,-1.220025103162289e-07  ,1.6110893704949435e-06 ,0.36972865971459046  ,0.10287274179656869     ,-1.8010103610700062e-05 ,-2.4026450421643564e-06 ,4.72357745256026e-06   ,21.032621547617058     ,0.0 ,14.615391588373729    ,2.6657480346181393      ,        0.0 ,        0.0 , 0.0
 0.0 ,0.0 ,           0.0 ,            0.0 ,            0.0 ,            0.0 ,              0.0 ,                   0.0 , 210.0 ,88.60463 ,-17.03476 ,           0.0 ,           0.0 ,       0.0 ,15.6001        ,-18.59477   ,-0.01232667      ,-0.0004071414    ,                 0.0 ,             0.0 ,             0.0 ,                 0.0 ,                 0.0 ,        0.0 ,1.9726940981691006     ,            0.0 ,            0.0 ,            0.0 ,              0.0 ,                   0.0 ,  0.0 ,0.0 , 130.9847761598235   ,1.0                ,0.0 ,-164.24837821458527 ,-293.58206066403216 ,-14.763283490751489     ,-150.08643710469255 ,          0.0 ,          0.0 ,-162.5772733830418  ,-295.2531158490714  ,-150.08643710469255 ,-607.9168249715108  , 80.46435870798919   ,202.63890832383692  ,139.36835956460996   ,-159.84093205963575   ,-289.1746628389799  ,-14.763283490751489     ,-145.67903993794377 ,          0.0 ,          0.0 ,-158.169876216293    ,-290.8457186823226  ,-145.67903993794377 ,-594.6945844830636  , 80.46435870798919   ,198.2315111570881    ,139.36835956460996   ,-1.439510430580556e-06  ,-3.337037261906978e-06  ,-7.212331003506131e-07  ,      0.0 ,      0.0 ,      0.0 ,-1.3563843050350491e-06 ,-3.4201628982287804e-06 ,      0.0 ,-4.776547691170926e-06  ,1.7245971049094994e-06 ,0.5641248333707883   ,0.403757612292332       ,-0.0003931250129308624  ,-2.3009249386786893e-05 ,0.0                    ,0.00039389156807546547 ,0.0 ,16.48561009987238     ,4.407415358213408       ,        0.0 ,        0.0 , 0.0
 0.0 ,0.0 ,           0.0 ,            0.0 ,            0.0 ,            0.0 ,              0.0 ,                   0.0 , 211.0 ,89.32933 ,-19.01567 ,           0.0 ,           0.0 ,       0.0 ,-4.22015       ,-18.59365   ,0.1650996        ,0.01677225       ,                 0.0 ,             0.0 ,             0.0 ,                 0.0 ,                 0.0 ,        0.0 ,2.506184466610006      ,            0.0 ,            0.0 ,            0.0 ,              0.0 ,                   0.0 ,  0.0 ,0.0 ,  65.68471301600937  ,1.0                ,0.0 ,-170.75311570872577 ,-317.5520329648747  ,-6.593251087412119      ,-161.01991645975386 ,          0.0 ,          0.0 ,-169.80703742242713 ,-318.4980584472526  ,-161.01991645975386 ,-649.3250651333543  , 88.58025789162716   ,216.44168910627613  ,153.42553577681673   ,-174.3069103154174    ,-321.1058764788293  ,-6.593251087412119      ,-164.5737127776292  ,          0.0 ,          0.0 ,-173.36088093638176  ,-322.05190196120725 ,-164.5737127776292  ,-659.9865428712975  , 88.58025789162716   ,219.99552872357302   ,153.42553577681673   ,-2.5420081909930037e-06 ,-1.132801983434646e-05  ,2.0857459096366319e-07  ,      0.0 ,      0.0 ,      0.0 ,-2.4329310017927357e-06 ,-1.1437096534474095e-05 ,      0.0 ,-1.3870030385143426e-05 ,6.0760171535492846e-06 ,0.7710280380368122   ,0.3069946012298061      ,-0.0005025174290234595  ,-2.086951162708885e-05  ,0.0013243287776443988  ,-5.33842728829734      ,0.0 ,3.0111732303187564    ,1.8982556934858348      ,        0.0 ,        0.0 , 0.0
 0.0 ,0.0 ,           0.0 ,            0.0 ,            0.0 ,            0.0 ,              0.0 ,                   0.0 , 212.0 ,91.23048 ,-18.93554 ,           0.0 ,           0.0 ,       0.0 ,-3.482161      ,-18.58732   ,0.09806857       ,-0.004014402     ,                 0.0 ,             0.0 ,             0.0 ,                 0.0 ,                 0.0 ,        0.0 ,2.49992875573194       ,            0.0 ,            0.0 ,            0.0 ,              0.0 ,                   0.0 ,  0.0 ,0.0 , 110.08900031144427  ,1.0                ,0.0 ,-162.79938361661203 ,-319.7144508801408  ,1.3820297553131828      ,-160.51859328996863 ,          0.0 ,          0.0 ,-162.77867269293483 ,-319.73516114807956 ,-160.51859328996863 ,-643.032427130983   , 91.28040049175192   ,214.34415875301335  ,158.1023227112806    ,-166.64963133908628   ,-323.56469860261507 ,1.3820297553131828      ,-164.36874166818134 ,          0.0 ,          0.0 ,-166.6289204154091   ,-323.5854088705538  ,-164.36874166818134 ,-654.5831213936781  , 91.28040049175192   ,218.19440713122603   ,158.1023227112806    ,-2.331807198343107e-06  ,-1.0981763380497096e-05 ,7.16474622112736e-07    ,      0.0 ,      0.0 ,      0.0 ,-2.2938271948344936e-06 ,-1.1019743389251617e-05 ,      0.0 ,-1.3313573071964402e-05 ,5.8775207073288215e-06 ,0.7867246886945181   ,0.2459551946120351      ,-0.0003673509650760438  ,-1.4577813249817997e-05 ,0.0013601759295968183  ,-5.917752950183306     ,0.0 ,4.3606229513099       ,2.067761506060499       ,        0.0 ,        0.0 , 0.0
 0.0 ,0.0 ,           0.0 ,            0.0 ,            0.0 ,            0.0 ,              0.0 ,                   0.0 , 213.0 ,93.20387 ,-18.87835 ,           0.0 ,           0.0 ,       0.0 ,-2.983192      ,-18.58003   ,0.05089694       ,0.00215894       ,                 0.0 ,             0.0 ,             0.0 ,                 0.0 ,                 0.0 ,        0.0 ,3.0009170832252714     ,            0.0 ,            0.0 ,            0.0 ,              0.0 ,                   0.0 ,  0.0 ,0.0 , 111.112082773556    ,1.0                ,0.0 ,-161.24224211596544 ,-322.2243893232702  ,-0.18579046768315305    ,-161.3144992431048  ,          0.0 ,          0.0 ,-161.2419926150423  ,-322.22458841682476 ,-161.3144992431048  ,-644.7810307740488  , 92.92259114506817   ,214.92697695525237  ,160.94664473475285   ,-166.8209167978031    ,-327.8030145041848  ,-0.18579046768315305    ,-166.893124332311   ,          0.0 ,          0.0 ,-166.82066729688     ,-327.80321359773933 ,-166.893124332311   ,-661.5170556342989  , 92.92259114506817   ,220.50570204445862   ,160.94664473475285   ,1.2291589455004586e-07  ,-2.3814832060298734e-06 ,2.7670077458941097e-06  ,      0.0 ,      0.0 ,      0.0 ,9.258362955950596e-07   ,-3.1844039608329133e-06 ,      0.0 ,-2.2585675842234854e-06 ,2.2136619474933236e-06 ,0.583005444460063    ,0.8044137917817192      ,-0.004944743475849628   ,-0.0003925439132029658  ,0.0                    ,0.004961134101824999   ,0.0 ,-4.293283230542898    ,-5.578656932891154      ,        0.0 ,        0.0 , 0.0
 0.0 ,0.0 ,           0.0 ,            0.0 ,            0.0 ,            0.0 ,              0.0 ,                   0.0 , 214.0 ,95.21397 ,-18.83571 ,           0.0 ,           0.0 ,       0.0 ,-2.641292      ,-18.57158   ,0.02749723       ,0.0005029695     ,                 0.0 ,             0.0 ,             0.0 ,                 0.0 ,                 0.0 ,        0.0 ,2.9709226198902847     ,            0.0 ,            0.0 ,            0.0 ,              0.0 ,                   0.0 ,  0.0 ,0.0 , 113.12699776917636  ,1.0                ,0.0 ,-162.40723706192102 ,-325.7041509636465  ,-1.0425861321626244     ,-162.92567305231682 ,          0.0 ,          0.0 ,-162.39691088328505 ,-325.7144761730365  ,-162.92567305231682 ,-651.0370597711901  , 94.13993855095015   ,217.0123534676626   ,163.05515377373862   ,-167.75998631151094   ,-331.0568998757881  ,-1.0425861321626244     ,-168.2784219644585  ,          0.0 ,          0.0 ,-167.7497094795278   ,-331.06717573852524 ,-168.2784219644585  ,-667.0952578358585  , 94.13993855095015   ,222.3651027172525    ,163.05515377373862   ,-2.9303987970423534e-08 ,-1.8385880722123514e-06 ,2.534723766709941e-06   ,      0.0 ,      0.0 ,      0.0 ,7.643974372694158e-07   ,-2.6322893589441147e-06 ,      0.0 ,-1.8678922771055786e-06 ,1.8463424808692982e-06 ,0.7863593957520529   ,0.29611348689041184     ,-0.0016560733898277821  ,-4.0441183978567144e-05 ,0.0049394863851457225  ,-7.2942030275577885    ,0.0 ,3.2622784517223256    ,1.9764067141699266      ,        0.0 ,        0.0 , 0.0
 0.0 ,0.0 ,           0.0 ,            0.0 ,            0.0 ,            0.0 ,              0.0 ,                   0.0 , 215.0 ,97.23315 ,-18.81952 ,           0.0 ,           0.0 ,       0.0 ,-2.577574      ,-18.56176   ,0.01162696       ,0.001068676      ,                 0.0 ,             0.0 ,             0.0 ,                 0.0 ,                 0.0 ,        0.0 ,1.489760093577417      ,            0.0 ,            0.0 ,            0.0 ,              0.0 ,                   0.0 ,  0.0 ,0.0 , 114.82358734595402  ,1.0                ,0.0 ,-163.08678640876397 ,-328.9526836642455  ,-1.414983676504644      ,-164.1791494780348  ,          0.0 ,          0.0 ,-163.07365193504765 ,-328.96576779663167 ,-164.1791494780348  ,-656.2186167193008  , 95.46037696724633   ,218.73957152340589  ,165.34224689604503   ,-168.18907370267064   ,-334.05501846773893 ,-1.414983676504644      ,-169.28148428152815 ,          0.0 ,          0.0 ,-168.1759878130826   ,-334.0680540159968  ,-169.28148428152815 ,-671.5254775264792  , 95.46037696724633   ,223.84185881731256   ,165.34224689604503   ,-1.5982982806114128e-07 ,-1.704237249199733e-06  ,1.046813518587609e-06   ,      0.0 ,      0.0 ,      0.0 ,6.072891284669788e-09   ,-1.8701398800195719e-06 ,      0.0 ,-1.8640673195367908e-06 ,1.0837831232497872e-06 ,0.7662797654030776   ,0.00122381256232064     ,-0.0008378617759361876  ,-8.74640610588202e-07   ,0.005353567364889286   ,-3.3807315343524973    ,0.0 ,0.07055483881073663   ,0.04274468265242549     ,        0.0 ,        0.0 , 0.0
 0.0 ,0.0 ,           0.0 ,            0.0 ,            0.0 ,            0.0 ,              0.0 ,                   0.0 , 216.0 ,99.25777 ,-18.90254 ,           0.0 ,           0.0 ,       0.0 ,-3.521823      ,-18.55036   ,0.004375979      ,0.0004550473     ,                 0.0 ,             0.0 ,             0.0 ,                 0.0 ,                 0.0 ,        0.0 ,1.9726239654073217     ,            0.0 ,            0.0 ,            0.0 ,              0.0 ,                   0.0 ,  0.0 ,0.0 , 115.07416730008654  ,1.0                ,0.0 ,-164.6909994210871  ,-331.87017522653423 ,-1.386228153674528      ,-165.5423799086493  ,          0.0 ,          0.0 ,-164.6787242019546  ,-331.88244894835884 ,-165.5423799086493  ,-662.1035039361228  , 96.28686238118473   ,220.70113564357956  ,166.77372815338907   ,-170.0649407962554    ,-337.24411660170256 ,-1.386228153674528      ,-170.91632128381758 ,          0.0 ,          0.0 ,-170.05266557712292  ,-337.25639032352706 ,-170.91632128381758 ,-678.2252786817755  , 96.28686238118473   ,226.07507701874786   ,166.77372815338907   ,-1.3596018148994716e-06 ,-4.464805815703867e-06  ,1.9622025204138716e-06  ,      0.0 ,      0.0 ,      0.0 ,-1.0641040509741844e-06 ,-4.760303530249301e-06  ,      0.0 ,-5.824407729363043e-06  ,2.5149412301534685e-06 ,0.7485758410437086   ,-0.005873255872311714   ,-0.001017949943569781   ,0.0                     ,0.005962929372526656   ,-3.2146404781879836    ,0.0 ,0.0                   ,0.0                     ,        0.0 ,        0.0 , 0.0
 0.0 ,0.0 ,           0.0 ,            0.0 ,            0.0 ,            0.0 ,              0.0 ,                   0.0 , 217.0 ,101.2727 ,-18.95593 ,           0.0 ,           0.0 ,       0.0 ,-4.193291      ,-18.5366    ,-0.0002125659    ,0.0002270096     ,                 0.0 ,             0.0 ,             0.0 ,                 0.0 ,                 0.0 ,        0.0 ,0.5078776641197276     ,            0.0 ,            0.0 ,            0.0 ,              0.0 ,                   0.0 ,  0.0 ,0.0 , 115.62554928935792  ,1.0                ,0.0 ,-165.97791386526185 ,-334.6380535126134  ,-1.3430014654160631     ,-166.65963080385157 ,          0.0 ,          0.0 ,-165.96672805961862 ,-334.6492393182566  ,-166.65963080385157 ,-667.2755972520168  , 97.18950931935265   ,222.42519898937653  ,168.337130915742     ,-170.0693268071       ,-338.72946710027435 ,-1.3430014654160631     ,-170.75104374568974 ,          0.0 ,          0.0 ,-170.05814100145673  ,-338.7406522600948  ,-170.75104374568974 ,-679.5498859355878  , 97.18950931935265   ,226.5166119312147    ,168.337130915742     ,-1.2791476365481211e-06 ,-8.17489361566069e-06   ,1.009464609833325e-06   ,      0.0 ,      0.0 ,      0.0 ,-1.2413119616854866e-06 ,-8.212729789103887e-06  ,      0.0 ,-9.45404324653107e-06   ,4.427400581008726e-06  ,0.8271867166253141   ,-0.0036059434890988434  ,-0.0009619520181458456  ,0.0                     ,0.0037448881953316042  ,-3.089829529672437     ,0.0 ,0.0                   ,0.0                     ,        0.0 ,        0.0 , 0.0
 0.0 ,0.0 ,           0.0 ,            0.0 ,            0.0 ,            0.0 ,              0.0 ,                   0.0 , 218.0 ,103.2765 ,-18.97086 ,           0.0 ,           0.0 ,       0.0 ,-4.510739      ,-18.51978   ,-0.003355702     ,0.0004083264     ,                 0.0 ,             0.0 ,             0.0 ,                 0.0 ,                 0.0 ,        0.0 ,2.4771519717766406     ,            0.0 ,            0.0 ,            0.0 ,              0.0 ,                   0.0 ,  0.0 ,0.0 , 116.34012375558443  ,1.0                ,0.0 ,-166.91625379120836 ,-335.75378432668896 ,-1.1102674742703618     ,-167.14247111817255 ,          0.0 ,          0.0 ,-166.90842916542098 ,-335.76160895247637 ,-167.14247111817255 ,-669.8124590725004  , 97.42000711952254   ,223.27080307868994  ,168.73638931693228   ,-171.00364961376684   ,-339.8411797007238  ,-1.1102674742703618     ,-171.22986694073103 ,          0.0 ,          0.0 ,-170.9958249879794   ,-339.8490047750348  ,-171.22986694073103 ,-682.0746967037452  , 97.42000711952254   ,227.35819890124841   ,168.73638931693228   ,-2.3986197665683677e-06 ,-1.2334282653424782e-05 ,1.1249325568214654e-06  ,      0.0 ,      0.0 ,      0.0 ,-2.3542668320429107e-06 ,-1.2378636583465004e-05 ,      0.0 ,-1.4732907914715916e-05 ,6.5766921021193575e-06 ,0.5753675236089207   ,0.5008929778692468      ,-0.0029141500261885573  ,-0.0006749332701391959  ,0.0007474193668018637  ,3.7255640867962985     ,0.0 ,-6.157743693769646    ,-6.157743693769646      ,        0.0 ,        0.0 , 0.0
 0.0 ,0.0 ,           0.0 ,            0.0 ,            0.0 ,            0.0 ,              0.0 ,                   0.0 , 219.0 ,105.2726 ,-18.95925 ,           0.0 ,           0.0 ,       0.0 ,-4.602225      ,-18.49902   ,-0.004492297     ,0.000321375      ,                 0.0 ,             0.0 ,             0.0 ,                 0.0 ,                 0.0 ,        0.0 ,2.5151985922192432     ,            0.0 ,            0.0 ,            0.0 ,              0.0 ,                   0.0 ,  0.0 ,0.0 , 117.1986666711295   ,1.0                ,0.0 ,-167.21555997565451 ,-335.55085037649303 ,-0.7569570565595547     ,-167.23877495536482 ,          0.0 ,          0.0 ,-167.2108768679575  ,-335.5554831690123  ,-167.23877495536482 ,-670.0051853075124  , 97.18586005206448   ,223.33507820315023  ,168.33083222349808   ,-171.5438971863705    ,-339.879187587209   ,-0.7569570565595547     ,-171.5671121660808  ,          0.0 ,          0.0 ,-171.53921407867347  ,-339.8838698731085  ,-171.5671121660808  ,-682.9902464330405  , 97.18586005206448   ,227.66341541386623   ,168.33083222349808   ,-2.049125618512948e-06  ,-1.327755531372981e-05  ,1.7104187644494525e-06  ,      0.0 ,      0.0 ,      0.0 ,-1.8998101199023736e-06 ,-1.342686880164769e-05  ,      0.0 ,-1.53266779355113e-05   ,7.286944765252344e-06  ,0.7663740276949094   ,-0.004791854339567601   ,-0.001278625233992826   ,0.0                     ,0.004964531979839868   ,-2.4582395528653143    ,0.0 ,0.0                   ,0.0                     ,        0.0 ,        0.0 , 0.0
 0.0 ,0.0 ,           0.0 ,            0.0 ,            0.0 ,            0.0 ,              0.0 ,                   0.0 , 220.0 ,107.2681 ,-18.93349 ,           0.0 ,           0.0 ,       0.0 ,-4.603985      ,-18.47309   ,-0.004371395     ,0.0003111979     ,                 0.0 ,             0.0 ,             0.0 ,                 0.0 ,                 0.0 ,        0.0 ,3.4942843147381426     ,            0.0 ,            0.0 ,            0.0 ,              0.0 ,                   0.0 ,  0.0 ,0.0 , 118.09897150241166  ,1.0                ,0.0 ,-166.48358625150715 ,-333.1877530160078  ,-0.6553671466027908     ,-166.70039789653907 ,          0.0 ,          0.0 ,-166.48061921546696 ,-333.1906696304389  ,-166.70039789653907 ,-666.3716867424448  , 96.18682844884044   ,222.12389529974223  ,166.60051365407685   ,-172.9970279578704    ,-339.7011451939666  ,-0.6553671466027908     ,-173.21383960290234 ,          0.0 ,          0.0 ,-172.99406092183023  ,-339.70411138678867 ,-173.21383960290234 ,-685.9120128047259  , 96.18682844884044   ,228.63733789931015   ,166.60051365407685   ,-9.60037690189035e-07   ,-5.868491666981117e-06  ,7.940182279752545e-07   ,      0.0 ,      0.0 ,      0.0 ,-7.697751048595929e-07  ,-6.0587538578697336e-06 ,      0.0 ,-6.8285315389930375e-06 ,3.3054623685656823e-06 ,0.7936779580677626   ,0.2547569739270957      ,-0.005568393434115123   ,-0.00018082830364232017 ,0.013340176331403724   ,-8.595046569714363     ,0.0 ,3.8620392461821353    ,2.084661438841189       ,        0.0 ,        0.0 , 0.0
 0.0 ,0.0 ,           0.0 ,            0.0 ,            0.0 ,            0.0 ,              0.0 ,                   0.0 , 221.0 ,109.2648 ,-18.90257 ,           0.0 ,           0.0 ,       0.0 ,-4.621026      ,-18.44047   ,-0.002287455     ,0.000455833      ,                 0.0 ,             0.0 ,             0.0 ,                 0.0 ,                 0.0 ,        0.0 ,2.5190834563984463     ,            0.0 ,            0.0 ,            0.0 ,              0.0 ,                   0.0 ,  0.0 ,0.0 , 120.35333448820624  ,0.9999999999999999 ,0.0 ,-166.27933933170692 ,-332.5097594839283  ,-0.49123228529073365    ,-166.4818445999204  ,          0.0 ,          0.0 ,-166.27743491980954 ,-332.5116638958257  ,-166.4818445999204  ,-665.2709434155556  , 95.91662569689171   ,221.75699797106006  ,166.13245466333063   ,-172.92293052621204   ,-339.15332451652466 ,-0.49123228529073365    ,-173.1253867075221  ,          0.0 ,          0.0 ,-172.92102611431469  ,-339.15525509033085 ,-173.1253867075221  ,-685.2016417502589  , 95.91662569689171   ,228.40051391675294   ,166.13245466333063   ,-5.050185084696022e-07  ,-3.4331238214387623e-06 ,5.123034569888171e-07   ,      0.0 ,      0.0 ,      0.0 ,-4.281435247229893e-07  ,-3.5099983963055773e-06 ,      0.0 ,-3.938143180037103e-06  ,1.916595713039952e-06  ,0.8257619621031219   ,0.12222151196972697     ,-0.009576408290944312   ,-9.551718136697974e-05  ,0.021081564057821772   ,-7.443312794813493     ,0.0 ,2.040007541372739     ,1.1011604971775086      ,        0.0 ,        0.0 , 0.0
 0.0 ,0.0 ,           0.0 ,            0.0 ,            0.0 ,            0.0 ,              0.0 ,                   0.0 , 222.0 ,111.2626 ,-18.89229 ,           0.0 ,           0.0 ,       0.0 ,-4.926623      ,-18.39963   ,-0.001581433     ,0.0005047747     ,                 0.0 ,             0.0 ,             0.0 ,                 0.0 ,                 0.0 ,        0.0 ,0.8377821771618302     ,            0.0 ,            0.0 ,            0.0 ,              0.0 ,                   0.0 ,  0.0 ,0.0 , 242.59488262310185  ,1.0                ,0.0 ,-166.29459071340872 ,-332.32594783863493 ,-0.3207112276457068     ,-166.2267695123359  ,          0.0 ,          0.0 ,-166.29321217014004 ,-332.32734207910363 ,-166.2267695123359  ,-664.8473080643796  , 95.87915415289672   ,221.61575812710825  ,166.0675577695734    ,-172.5456302025379    ,-338.5769873277641  ,-0.3207112276457068     ,-172.4777758429925  ,          0.0 ,          0.0 ,-172.54423596206917  ,-338.57836587103276 ,-172.4777758429925  ,-683.6003776760945  , 95.87915415289672   ,227.86676445776482   ,166.0675577695734    ,-7.815795356299102e-07  ,-5.704463713609316e-06  ,-1.5714133064057732e-07 ,      0.0 ,      0.0 ,      0.0 ,-7.495858127523065e-07  ,-5.736457227131101e-06  ,      0.0 ,-6.486043650310137e-06  ,3.118552477470649e-06  ,0.7643241924716384   ,0.14316111642926896     ,-0.011298703014943073   ,-0.0027896310454806612  ,0.01619594785169311    ,0.026439535497050137   ,0.0 ,-5.461011943580487    ,-5.461011943580487      ,        0.0 ,        0.0 , 0.0
 0.0 ,0.0 ,           0.0 ,            0.0 ,            0.0 ,            0.0 ,              0.0 ,                   0.0 , 223.0 ,113.2525 ,-18.9723  ,           0.0 ,           0.0 ,       0.0 ,-6.217722      ,-18.35053   ,-0.0006899636    ,0.0001736439     ,                 0.0 ,             0.0 ,             0.0 ,                 0.0 ,                 0.0 ,        0.0 ,1.513098243863103      ,            0.0 ,            0.0 ,            0.0 ,              0.0 ,                   0.0 ,  0.0 ,0.0 , 124.2318897438178   ,1.0                ,0.0 ,-165.67321571839634 ,-331.79082738080194 ,-0.37201628343271226    ,-166.2500615753105  ,          0.0 ,          0.0 ,-165.6718005878731  ,-331.792191732894   ,-166.2500615753105  ,-663.7141046745089  , 95.74401031459333   ,221.23801831340182  ,165.8334964306741    ,-174.67194536393137   ,-340.789557026337   ,-0.37201628343271226    ,-175.24879122084553 ,          0.0 ,          0.0 ,-174.67058049910474  ,-340.79092137842906 ,-175.24879122084553 ,-690.7102936111139  , 95.74401031459333   ,230.23674795893683   ,165.8334964306741    ,2.702926135296345e-06   ,-2.285417480116578e-07  ,-1.802071073284491e-06  ,      0.0 ,      0.0 ,      0.0 ,2.9966538397852372e-06  ,-5.222698392440867e-07  ,      0.0 ,2.4743840908178527e-06  ,1.9822603052234257e-06 ,0.8680657993417065   ,-0.03476027036738569    ,-0.04469511024359582    ,-7.633996694199246e-05  ,0.06005022675084253    ,-8.231947013575342     ,0.0 ,-0.16849020556254124  ,-0.16849020556254124    ,        0.0 ,        0.0 , 0.0
 0.0 ,0.0 ,           0.0 ,            0.0 ,            0.0 ,            0.0 ,              0.0 ,                   0.0 , 224.0 ,115.2306 ,-19.02482 ,           0.0 ,           0.0 ,       0.0 ,-7.359272      ,-18.28889   ,0.0001472509     ,3.794398e-06     ,                 0.0 ,             0.0 ,             0.0 ,                 0.0 ,                 0.0 ,        0.0 ,2.9984122762589127     ,            0.0 ,            0.0 ,            0.0 ,              0.0 ,                   0.0 ,  0.0 ,0.0 , 122.19338437050283  ,1.0                ,0.0 ,-165.29677933488693 ,-332.1295695569281  ,-0.5086525629318831     ,-166.41325731681388 ,          0.0 ,          0.0 ,-165.29434880564128 ,-332.1319497617492  ,-166.41325731681388 ,-663.8396309670304  , 96.00267211454627   ,221.27988524181066  ,166.2815066820055    ,-175.6035522410868    ,-342.4363672215295  ,-0.5086525629318831     ,-176.72005498141527 ,          0.0 ,          0.0 ,-175.60117203626567  ,-342.4387474263506  ,-176.72005498141527 ,-694.75994968563    , 96.00267211454627   ,231.58665814801049   ,166.2815066820055    ,9.31929025922433e-06    ,-8.91319977121442e-06   ,-2.3677328906719655e-06 ,      0.0 ,      0.0 ,      0.0 ,9.689188609767319e-06   ,-9.28309926710485e-06   ,      0.0 ,4.060894496622135e-07   ,9.86858835318711e-06   ,0.7952079006959618   ,0.39197000833950013     ,-0.08799500457609316    ,-0.047336890947532434   ,0.052735971008342576   ,-10.441657056483269    ,0.0 ,0.5496755320899223    ,0.2022176106375273      ,        0.0 ,        0.0 , 0.0
 0.0 ,0.0 ,           0.0 ,            0.0 ,            0.0 ,            0.0 ,              0.0 ,                   0.0 , 225.0 ,117.1972 ,-19.04436 ,           0.0 ,           0.0 ,       0.0 ,-8.31475       ,-18.21288   ,-0.0002533898    ,0.0001556026     ,                 0.0 ,             0.0 ,             0.0 ,                 0.0 ,                 0.0 ,        0.0 ,1.74763083086036       ,            0.0 ,            0.0 ,            0.0 ,              0.0 ,                   0.0 ,  0.0 ,0.0 , 123.28853919912754  ,1.0                ,0.0 ,-165.0579700091002  ,-332.23348606242087 ,-0.7416703622109788     ,-166.23559419849764 ,          0.0 ,          0.0 ,-165.05457269072565 ,-332.2368331573266  ,-166.23559419849764 ,-663.5270502700187  , 96.18381580532952   ,221.17568342333954  ,166.5952308574941    ,-176.05596095633828   ,-343.2315021631208  ,-0.7416703622109788     ,-177.23358514573573 ,          0.0 ,          0.0 ,-176.05261386143258  ,-343.23484925802654 ,-177.23358514573573 ,-696.5210482651948  , 96.18381580532952   ,232.17367437057766   ,166.5952308574941    ,1.288898222117937e-05   ,-9.532519322644268e-06  ,-3.6249974763390535e-06 ,      0.0 ,      0.0 ,      0.0 ,1.312072108790946e-05   ,-9.764258389934412e-06  ,      0.0 ,3.35646473917631e-06    ,1.1553851662533265e-05 ,0.6929832966900995   ,0.7323896248249143      ,-0.1143736823356143     ,-0.11388328397801092    ,0.02627136161914974    ,-5.0848408620086625    ,0.0 ,-5.762762793205424    ,-5.762762793205424      ,        0.0 ,        0.0 , 0.0
 0.0 ,0.0 ,           0.0 ,            0.0 ,            0.0 ,            0.0 ,              0.0 ,                   0.0 , 226.0 ,119.1547 ,-19.04353 ,           0.0 ,           0.0 ,       0.0 ,-9.172479      ,-18.12628   ,0.0001556557     ,0.000135953      ,                 0.0 ,             0.0 ,             0.0 ,                 0.0 ,                 0.0 ,        0.0 ,0.500144730864654      ,            0.0 ,            0.0 ,            0.0 ,              0.0 ,                   0.0 ,  0.0 ,0.0 , 124.7968263262562   ,1.0                ,0.0 ,-166.25578448535128 ,-334.0310717604415  ,-0.599484847803236      ,-166.58224757707177 ,          0.0 ,          0.0 ,-166.25353245337425 ,-334.0332238516396  ,-166.58224757707177 ,-666.8690539268337  , 96.7729280537394    ,222.28966803000796  ,167.61561004454148   ,-174.7793785371452    ,-342.55471579776224 ,-0.599484847803236      ,-175.10584162886568 ,          0.0 ,          0.0 ,-174.77722638672594  ,-342.5568679481815  ,-175.10584162886568 ,-692.4399360229943  , 96.7729280537394    ,230.81331197783274   ,167.61561004454148   ,6.501341486752781e-06   ,-1.2252088425649087e-05 ,3.069435661805337e-07   ,      0.0 ,      0.0 ,      0.0 ,6.502816873270077e-06   ,-1.2253563812166384e-05 ,      0.0 ,-5.750746939488517e-06  ,9.524075005740438e-06  ,0.5893456226309187   ,0.9952702766230936      ,-0.07268926668624553    ,-0.12189411384057854    ,7.968833687409222e-05  ,0.12317647701398378    ,0.0 ,-8.499548320278551    ,-8.502250539622452      ,        0.0 ,        0.0 , 0.0
 0.0 ,0.0 ,           0.0 ,            0.0 ,            0.0 ,            0.0 ,              0.0 ,                   0.0 , 227.0 ,121.1056 ,-19.03266 ,           0.0 ,           0.0 ,       0.0 ,-9.701718      ,-18.06249   ,-5.111906e-05    ,0.000250474      ,                 0.0 ,             0.0 ,             0.0 ,                 0.0 ,                 0.0 ,        0.0 ,1.9889501903383822     ,            0.0 ,            0.0 ,            0.0 ,              0.0 ,                   0.0 ,  0.0 ,0.0 , 316.067677526032    ,1.0                ,0.0 ,-166.0628169884135  ,-333.6683482012023  ,-0.5002859475675454     ,-166.37550315151407 ,          0.0 ,          0.0 ,-166.06126449109502 ,-333.6698755696576  ,-166.37550315151407 ,-666.1066432122666  , 96.67830062717952   ,222.03551440408887  ,167.45172920614405   ,-174.7180807378798    ,-342.3236365344489  ,-0.5002859475675454     ,-175.03079148476064 ,          0.0 ,          0.0 ,-174.7165779532048   ,-342.3251141754456  ,-175.03079148476064 ,-692.0724836134111  , 96.67830062717952   ,230.69085300987695   ,167.45172920614405   ,1.704358079046833e-05   ,-2.5414849770429652e-05 ,6.98799542707386e-08    ,      0.0 ,      0.0 ,      0.0 ,1.7091087175851745e-05  ,-2.5462356155813068e-05 ,      0.0 ,-8.371271214897466e-06  ,2.145242958508898e-05  ,0.5971755594747725   ,0.9958092306702557      ,-0.0518948911036673     ,-0.17955587015193575    ,0.0                    ,0.2168883104038252     ,0.0 ,-8.652563292448106    ,-8.655285902476667      ,        0.0 ,        0.0 , 0.0
 0.0 ,0.0 ,           0.0 ,            0.0 ,            0.0 ,            0.0 ,              0.0 ,                   0.0 , 228.0 ,123.053  ,-19.01714 ,           0.0 ,           0.0 ,       0.0 ,-8.780573      ,-18.13908   ,-0.01838143      ,0.0002237225     ,                 0.0 ,             0.0 ,             0.0 ,                 0.0 ,                 0.0 ,        0.0 ,2.7467124494721427     ,            0.0 ,            0.0 ,            0.0 ,              0.0 ,                   0.0 ,  0.0 ,0.0 , 293.8717678074716   ,0.9999999999999999 ,0.0 ,-166.93741832213416 ,-332.62936465869944 ,-0.38698730506706364    ,-166.37120055111558 ,          0.0 ,          0.0 ,-166.93627472940852 ,-332.630508251425   ,-166.37120055111558 ,-665.9379835319492  , 95.82890631037387   ,221.979327706176    ,165.98051844948702   ,-176.17190323745385   ,-341.8639243955306  ,-0.38698730506706364    ,-175.60576028794674 ,          0.0 ,          0.0 ,-176.17083502992733  ,-341.8650177815456  ,-175.60576028794674 ,-693.6416130994197  , 95.82890631037387   ,231.2138628282063    ,165.98051844948702   ,9.273511367355064e-06   ,-1.3030725935101569e-05 ,1.4385599179029463e-06  ,      0.0 ,      0.0 ,      0.0 ,9.346621726331085e-06   ,-1.310383629407759e-05  ,      0.0 ,-3.7572171026968326e-06 ,1.1277578185944701e-05 ,0.6885935931828657   ,0.7870964668239567      ,0.029533288409720963    ,-0.33153243073417576    ,0.04007126236120569    ,-7.453132008623645     ,0.0 ,-1.425126398079601    ,-1.425126398079601      ,        0.0 ,        0.0 , 0.0
 0.0 ,0.0 ,           0.0 ,            0.0 ,            0.0 ,            0.0 ,              0.0 ,                   0.0 , 229.0 ,123.0651 ,-17.03543 ,           0.0 ,           0.0 ,       0.0 ,2.681188       ,-17.30355   ,0.001843685      ,4.532899e-06     ,                 0.0 ,             0.0 ,             0.0 ,                 0.0 ,                 0.0 ,        0.0 ,3.501296257589411      ,            0.0 ,            0.0 ,            0.0 ,              0.0 ,                   0.0 ,  0.0 ,0.0 , 127.67461546357711  ,1.0                ,0.0 ,-154.76499446034978 ,-306.7331452950508  ,-0.4132814812226917     ,-153.81922211971658 ,          0.0 ,          0.0 ,-154.7636484555204  ,-306.73449132879114 ,-153.81922211971658 ,-615.3173618751171  , 88.01726162182685   ,205.1057871474666   ,152.45037759794707   ,-154.12092119280987   ,-306.0891719985999  ,-0.4132814812226917     ,-153.17519860690706 ,          0.0 ,          0.0 ,-154.11962534651724  ,-306.0904678159816  ,-153.17519860690706 ,-613.3852917983168  , 88.01726162182685   ,204.46176406737436   ,152.45037759794707   ,1.0785150657192894e-05  ,-9.759301262613044e-06  ,-6.715547237751752e-08  ,      0.0 ,      0.0 ,      0.0 ,1.0856635473718366e-05  ,-9.83078607769297e-06   ,      0.0 ,1.0258488434999513e-06  ,1.0360687730018905e-05 ,0.5785560405936827   ,0.6961165116277694      ,0.15701411907073712     ,-0.3870555193029001     ,0.0                    ,0.4289415375186831     ,0.0 ,4.18303503962257      ,0.6440168714636045      ,        0.0 ,        0.0 , 0.0
 0.0 ,0.0 ,           0.0 ,            0.0 ,            0.0 ,            0.0 ,              0.0 ,                   0.0 , 230.0 ,123.0803 ,-15.05546 ,           0.0 ,           0.0 ,       0.0 ,5.342688       ,-15.58973   ,0.01529856       ,0.0001389297     ,                 0.0 ,             0.0 ,             0.0 ,                 0.0 ,                 0.0 ,        0.0 ,0.9996885334261019     ,            0.0 ,            0.0 ,            0.0 ,              0.0 ,                   0.0 ,  0.0 ,0.0 , 128.69087770859082  ,1.0                ,0.0 ,-134.65920942634668 ,-271.49384168110896 ,0.712181218175592       ,-136.10994960497905 ,          0.0 ,          0.0 ,-134.65429287290507 ,-271.498807998494   ,-136.10994960497905 ,-542.2630007124347  , 78.59114568294376   ,180.75431698283043  ,136.12383300379045   ,-135.7949590496233    ,-272.62964147814887 ,0.712181218175592       ,-137.24564943316557 ,          0.0 ,          0.0 ,-135.7900429371482   ,-272.63450782668053 ,-137.24564943316557 ,-545.6702499609377  , 78.59114568294376   ,181.89006657496037   ,136.12383300379045   ,1.692232047309697e-05   ,4.205542462908484e-06   ,1.0095055643722476e-05  ,      0.0 ,      0.0 ,      0.0 ,1.9120981486065093e-05  ,2.0068789176465435e-06  ,      0.0 ,2.1127863931284326e-05  ,1.1337554192882191e-05 ,0.7911186010203239   ,0.5244861852308695      ,-0.7227530923720273     ,-0.528232813536642      ,0.6914514172865186     ,-0.9302461499466028    ,0.0 ,0.3265049152117389    ,0.3237296796159312      ,        0.0 ,        0.0 , 0.0
 0.0 ,0.0 ,           0.0 ,            0.0 ,            0.0 ,            0.0 ,              0.0 ,                   0.0 , 231.0 ,123.0947 ,-13.07715 ,           0.0 ,           0.0 ,       0.0 ,2.127808       ,-13.28993   ,0.0170246        ,9.876971e-06     ,                 0.0 ,             0.0 ,             0.0 ,                 0.0 ,                 0.0 ,        0.0 ,1.5064708553868082     ,            0.0 ,            0.0 ,            0.0 ,              0.0 ,                   0.0 ,  0.0 ,0.0 , 129.61233568216193  ,1.0                ,0.0 ,-119.30737545635156 ,-239.34050485943467 ,0.1103532638663371      ,-119.53727716902576 ,          0.0 ,          0.0 ,-119.3072743497417  ,-239.34065594058993 ,-119.53727716902576 ,-478.1851573401222  , 69.23510870087203   ,159.39505249493735  ,119.91875626169103   ,-116.00353449063228   ,-236.03661430233043 ,0.1103532638663371      ,-116.23333634799636 ,          0.0 ,          0.0 ,-116.00338340947705  ,-236.03676538348563 ,-116.23333634799636 ,-468.27343502172386 , 69.23510870087203   ,156.09111167390793   ,119.91875626169103   ,3.175319399093287e-06   ,-1.1047480281372025e-05 ,1.0364749384702124e-06  ,      0.0 ,      0.0 ,      0.0 ,3.196923831805724e-06   ,-1.106908270931505e-05  ,      0.0 ,-7.872157875124623e-06  ,7.4877280893201726e-06 ,0.7446052411271631   ,0.04202289568458782     ,-0.44827901118116614    ,-0.004283814831395685   ,0.44976232684884715    ,0.9377321441750519     ,0.0 ,10.079018304321117    ,2.4319211174956306      ,        0.0 ,        0.0 , 0.0
 0.0 ,0.0 ,           0.0 ,            0.0 ,            0.0 ,            0.0 ,              0.0 ,                   0.0 , 232.0 ,123.1026 ,-11.10052 ,           0.0 ,           0.0 ,       0.0 ,1.225682       ,-11.22309   ,0.01493235       ,-0.000161498     ,                 0.0 ,             0.0 ,             0.0 ,                 0.0 ,                 0.0 ,        0.0 ,1.493865847845841      ,            0.0 ,            0.0 ,            0.0 ,              0.0 ,                   0.0 ,  0.0 ,0.0 , 130.46667869580293  ,1.0                ,0.0 ,-99.78609276211336  ,-200.69507155586092 ,-0.41532241950615445    ,-100.56527865649747 ,          0.0 ,          0.0 ,-99.78392582506255  ,-200.69716866513465 ,-100.56527865649747 ,-401.04637317933236 , 58.03809184539293   ,133.6821243105443   ,100.5248987091728    ,-99.37375340685838    ,-200.28278664853224 ,-0.41532241950615445    ,-100.1529392686048  ,          0.0 ,          0.0 ,-99.37163615013168   ,-200.28488408418298 ,-100.1529392686048  ,-399.80946939713857 , 58.03809184539293   ,133.26979001663088   ,100.5248987091728    ,8.041864797974239e-06   ,4.186446022037608e-06   ,-5.294970204122883e-06  ,      0.0 ,      0.0 ,      0.0 ,9.573452530598851e-06   ,2.6548572901997724e-06  ,      0.0 ,1.2228313817651519e-05  ,4.960569652501394e-06  ,0.9839497791336387   ,-0.06426700447863654    ,-0.7746354820493094     ,0.0                     ,0.7797800598090621     ,0.4331860660495904     ,0.0 ,0.0                   ,0.0                     ,        0.0 ,        0.0 , 0.0
 0.0 ,0.0 ,           0.0 ,            0.0 ,            0.0 ,            0.0 ,              0.0 ,                   0.0 , 233.0 ,123.1002 ,-9.125497 ,           0.0 ,           0.0 ,       0.0 ,0.5967296      ,-9.18517    ,0.02055832       ,-8.614872e-05    ,                 0.0 ,             0.0 ,             0.0 ,                 0.0 ,                 0.0 ,        0.0 ,0.5120950099649764     ,            0.0 ,            0.0 ,            0.0 ,              0.0 ,                   0.0 ,  0.0 ,0.0 , 131.38425943124105  ,0.9999999999999999 ,0.0 ,-83.12178042762052  ,-166.67480343245245 ,-0.4302426234361102     ,-83.38604254739033  ,          0.0 ,          0.0 ,-83.1175898324899   ,-166.67896903343294 ,-83.38604254739033  ,-333.1826063816132  , 48.16704101172736   ,111.06088544720421  , 83.42775592544025   ,-81.26445327137529    ,-164.81741662613246 ,-0.4302426234361102     ,-81.52871046747015  ,          0.0 ,          0.0 ,-81.26025770794466   ,-164.821631910113   ,-81.52871046747015  ,-327.61059519940267 , 48.16704101172736   ,109.20354333680936   , 83.42775592544025   ,4.609648994008361e-06   ,-5.812102324655081e-06  ,-2.748330167401745e-06  ,      0.0 ,      0.0 ,      0.0 ,4.790682366292283e-06   ,-5.993137237686537e-06  ,      0.0 ,-1.2024538338167185e-06 ,5.403222879307131e-06  ,0.7532003378103943   ,0.35436660197382946     ,-0.5385277996132471     ,-0.16704511717288784    ,0.5040848044254564     ,0.40156222372490313    ,0.0 ,2.1480728140088696    ,1.627465079298506       ,        0.0 ,        0.0 , 0.0
 0.0 ,0.0 ,           0.0 ,            0.0 ,            0.0 ,            0.0 ,              0.0 ,                   0.0 , 234.0 ,123.0906 ,-7.151687 ,           0.0 ,           0.0 ,       0.0 ,1.409091       ,-7.292596   ,0.02369519       ,-0.0006903444    ,                 0.0 ,             0.0 ,             0.0 ,                 0.0 ,                 0.0 ,        0.0 ,1.5004033857223502     ,            0.0 ,            0.0 ,            0.0 ,              0.0 ,                   0.0 ,  0.0 ,0.0 ,  87.00153845881226  ,1.0                ,0.0 ,-64.95263080545335  ,-130.69640652644895 ,-0.7233032388693146     ,-65.29530982362638  ,          0.0 ,          0.0 ,-64.94427016541724  ,-130.70475189134382 ,-65.29530982362638  ,-260.94430703170116 , 37.870910566647176  , 86.98144230775273  , 65.59434014091379   ,-62.68039498768458    ,-128.42416555004962 ,-0.7233032388693146     ,-63.023078971054574 ,          0.0 ,          0.0 ,-62.67203434764846   ,-128.4325109149445  ,-63.023078971054574 ,-254.12763445053346 , 37.870910566647176  , 84.70921145518092   , 65.59434014091379   ,9.506572917025094e-06   ,-1.441372470591872e-05  ,-6.563989667009652e-07  ,      0.0 ,      0.0 ,      0.0 ,9.511208094478241e-06   ,-1.4418364837724539e-05 ,      0.0 ,-4.907152312524063e-06  ,1.2049402415869403e-05 ,0.8429693021476573   ,-0.09565451142592502    ,-0.7195094044210621     ,0.0                     ,0.7297364723560699     ,3.016820979328381      ,0.0 ,0.0                   ,0.0                     ,        0.0 ,        0.0 , 0.0
 0.0 ,0.0 ,           0.0 ,            0.0 ,            0.0 ,            0.0 ,              0.0 ,                   0.0 , 235.0 ,121.1831 ,-7.304048 ,           0.0 ,           0.0 ,       0.0 ,6.131691       ,-7.917217   ,0.01221505       ,0.0007216998     ,                 0.0 ,             0.0 ,             0.0 ,                 0.0 ,                 0.0 ,        0.0 ,1.9891742642918144     ,            0.0 ,            0.0 ,            0.0 ,              0.0 ,                   0.0 ,  0.0 ,0.0 , 133.20861958525424  ,1.0                ,0.0 ,-68.15990031071927  ,-134.04707193324987 ,-0.6327347996453261     ,-67.59987399006654  ,          0.0 ,          0.0 ,-68.15374492869012  ,-134.05324722043275 ,-67.59987399006654  ,-269.8068409787218  , 38.209274143723334  , 89.93563357399125  , 66.18040232209998   ,-64.3532655470649     ,-130.2404171830066  ,-0.6327347996453261     ,-63.79323922641217  ,          0.0 ,          0.0 ,-64.34711016503574   ,-130.2465924701895  ,-63.79323922641217  ,-258.3869269818716  , 38.209274143723334  , 86.12897397080445   , 66.18040232209998   ,7.591732771735289e-06   ,-5.117443841435808e-06  ,-1.1553155995985693e-05 ,      0.0 ,      0.0 ,      0.0 ,1.1091774691945653e-05  ,-8.61748924186294e-06   ,      0.0 ,2.474288433508831e-06   ,9.983208226413543e-06  ,0.4900179261285553   ,0.6206624400178905      ,-0.09042633798141247    ,-0.27230638026391185    ,0.0018788982481950894  ,0.317548716597698      ,0.0 ,6.538282838314878     ,3.786309120483705       ,        0.0 ,        0.0 , 0.0
 0.0 ,0.0 ,           0.0 ,            0.0 ,            0.0 ,            0.0 ,              0.0 ,                   0.0 , 236.0 ,119.2796 ,-7.454755 ,           0.0 ,           0.0 ,       0.0 ,13.2207        ,-8.776825   ,-0.001227927     ,-0.0005975401    ,                 0.0 ,             0.0 ,             0.0 ,                 0.0 ,                 0.0 ,        0.0 ,2.4960400152704025     ,            0.0 ,            0.0 ,            0.0 ,              0.0 ,                   0.0 ,  0.0 ,0.0 , 134.85853296776338  ,1.0                ,0.0 ,-69.92691524442583  ,-137.67540620773116 ,0.01793758184802538     ,-69.41990282461796  ,          0.0 ,          0.0 ,-69.92334717605888  ,-137.6789990233296  ,-69.41990282461796  ,-277.02219904226286 , 39.26635837729735   , 92.34073626016631  , 68.01132777857889   ,-65.27664365394585    ,-133.0251194071695  ,0.01793758184802538     ,-64.76963121588156  ,          0.0 ,          0.0 ,-65.27307556732248   ,-133.02871240533221 ,-64.76963121588156  ,-263.07138921914066 , 39.26635837729735   , 87.69044966042534   , 68.01132777857889   ,1.134857309047357e-05   ,-6.2903885209902745e-06 ,-9.312424354456927e-06  ,      0.0 ,      0.0 ,      0.0 ,1.4663341661600474e-05  ,-9.605159076277237e-06  ,      0.0 ,5.0581825682484996e-06  ,1.2263876476760313e-05 ,0.49122825571258344  ,0.31932594544164977     ,-0.05407056290478774    ,-0.10615404357331884    ,8.952891211077799e-06  ,0.16755496341685833    ,0.0 ,20.970127415804047    ,4.641300449389097       ,        0.0 ,        0.0 , 0.0
 0.0 ,0.0 ,           0.0 ,            0.0 ,            0.0 ,            0.0 ,              0.0 ,                   0.0 , 237.0 ,117.3819 ,-7.603658 ,           0.0 ,           0.0 ,       0.0 ,22.50542       ,-9.854199   ,0.002511383      ,0.0007882249     ,                 0.0 ,             0.0 ,             0.0 ,                 0.0 ,                 0.0 ,        0.0 ,2.532939023010945      ,            0.0 ,            0.0 ,            0.0 ,              0.0 ,                   0.0 ,  0.0 ,0.0 , 254.71881391372895  ,1.0                ,0.0 ,-71.71168085738553  ,-140.52918055435637 ,0.041731151838695454    ,-70.90677391854784  ,          0.0 ,          0.0 ,-71.70554364200261  ,-140.5353151050442  ,-70.90677391854784  ,-283.147622337195   , 39.97557061647026   , 94.38254161749228  , 69.23971977188793   ,-66.80539659818785    ,-135.6229004879556  ,0.041731151838695454    ,-66.00048965935018  ,          0.0 ,          0.0 ,-66.79925938280495   ,-135.6290350386434  ,-66.00048965935018  ,-268.42877452903815 , 39.97557061647026   , 89.47623741942223   , 69.23971977188793   ,9.371431584463633e-06   ,-4.527464271570738e-06  ,-6.3839698823336226e-06 ,      0.0 ,      0.0 ,      0.0 ,1.6512124010304067e-05  ,-1.1668159479162592e-05 ,      0.0 ,4.843963046423382e-06   ,1.4189044463171496e-05 ,0.4041613005383471   ,0.15187085879779763     ,-0.010107384887514176   ,-0.017250149375946558   ,0.00018383667237956993 ,13.577011283499678     ,0.0 ,20.16256361309584     ,3.6540181974199006      ,        0.0 ,        0.0 , 0.0
 0.0 ,0.0 ,           0.0 ,            0.0 ,            0.0 ,            0.0 ,              0.0 ,                   0.0 , 238.0 ,115.4922 ,-7.755566 ,           0.0 ,           0.0 ,       0.0 ,34.13652       ,-11.16922   ,0.0002642085     ,8.122037e-05     ,                 0.0 ,             0.0 ,             0.0 ,                 0.0 ,                 0.0 ,        0.0 ,3.2409598156831367     ,            0.0 ,            0.0 ,            0.0 ,              0.0 ,                   0.0 ,  0.0 ,0.0 , 255.31874876156593  ,1.0                ,0.0 ,-74.16741305776311  ,-142.57935088053165 ,-0.5470007668535433     ,-72.45000006620967  ,          0.0 ,          0.0 ,-74.15973944633768  ,-142.58703997971594 ,-72.45000006620967  ,-289.19681879080326 , 40.01183577563634   , 96.39892857088084  , 69.30253437432833   ,-69.2879798927288     ,-137.6999623922262  ,-0.5470007668535433     ,-67.57056690117534  ,          0.0 ,          0.0 ,-69.28030880047149   ,-137.70762345158596 ,-67.57056690117534  ,-274.5585040382242  , 40.01183577563634   , 91.51948827574466   , 69.30253437432833   ,1.6585741056073142e-06  ,4.350621324722585e-06   ,-9.468530531750785e-06  ,      0.0 ,      0.0 ,      0.0 ,1.477309346659162e-05   ,-8.763900544472825e-06  ,      0.0 ,6.009192009320843e-06   ,1.1929857595161578e-05 ,0.283916298252905    ,0.14759155672101806     ,-0.017764119198786166   ,-0.030924484206044458   ,0.00012996134938145668 ,33.39470207399283      ,0.0 ,7.8485427466690085    ,2.35120337691871        ,        0.0 ,        0.0 , 0.0
 0.0 ,0.0 ,           0.0 ,            0.0 ,            0.0 ,            0.0 ,              0.0 ,                   0.0 , 239.0 ,113.61   ,-7.921227 ,           0.0 ,           0.0 ,       0.0 ,47.35851       ,-12.65708   ,-0.0009763672    ,-1.005385e-05    ,                 0.0 ,             0.0 ,             0.0 ,                 0.0 ,                 0.0 ,        0.0 ,2.249670182697897      ,            0.0 ,            0.0 ,            0.0 ,              0.0 ,                   0.0 ,  0.0 ,0.0 , 255.28653939597086  ,1.0                ,0.0 ,-75.10309883887822  ,-147.5063453977186  ,-0.07157419085286128    ,-74.13989566278146  ,          0.0 ,          0.0 ,-75.10255137946005  ,-147.50691981478082 ,-74.13989566278146  ,-296.7493369046923  , 42.083340889776     , 98.91643843474044  , 72.89048615202658   ,-70.11624347652187    ,-142.519489632718   ,-0.07157419085286128    ,-69.1530428015245   ,          0.0 ,          0.0 ,-70.1156985182031    ,-142.52004244930924 ,-69.1530428015245   ,-281.7887784551362  , 42.083340889776     , 93.92958517083925   , 72.89048615202658   ,5.078999404819052e-06   ,-4.822479684221059e-06  ,-2.3167961797030016e-06 ,      0.0 ,      0.0 ,      0.0 ,5.229804075845293e-06   ,-4.9732843552473e-06    ,      0.0 ,2.565197179136983e-07   ,5.102576611390907e-06  ,0.18675712346649218  ,0.01745658913585197     ,-0.00017840755230454758 ,-2.5100258198015963e-05 ,0.00022329499480611164 ,50.68392143845491      ,0.0 ,18.357856160780525    ,1.2691420608637574      ,        0.0 ,        0.0 , 0.0
 0.0 ,0.0 ,           0.0 ,            0.0 ,            0.0 ,            0.0 ,              0.0 ,                   0.0 , 240.0 ,111.7338 ,-8.125232 ,           0.0 ,           0.0 ,       0.0 ,60.30104       ,-14.15534   ,0.001013313      ,0.0001568693     ,                 0.0 ,             0.0 ,             0.0 ,                 0.0 ,                 0.0 ,        0.0 ,2.7609352062292114     ,            0.0 ,            0.0 ,            0.0 ,              0.0 ,                   0.0 ,  0.0 ,0.0 , 255.33811722601985  ,1.0                ,0.0 ,-77.37271368402115  ,-151.32420611512163 ,0.023265419288478632    ,-76.08967212483917  ,          0.0 ,          0.0 ,-77.37210059135683  ,-151.32480453734527 ,-76.08967212483917  ,-304.7865519399651  , 43.07253059796375   ,101.59552101644253  , 74.60381215411019   ,-72.38622115767473    ,-146.33767117715874 ,0.023265419288478632    ,-71.10317959849274  ,          0.0 ,          0.0 ,-72.38560557949046   ,-146.33831894026378 ,-71.10317959849274  ,-289.8270691262386  , 43.07253059796375   , 96.60901436791883   , 74.60381215411019   ,2.710417981820869e-06   ,-3.007827341800465e-06  ,-6.306423703238447e-07  ,      0.0 ,      0.0 ,      0.0 ,4.412127396393738e-06   ,-4.709536767036694e-06  ,      0.0 ,-2.974097133427977e-07  ,4.663656405147325e-06  ,0.3877813582268822   ,0.05483434484792379     ,-0.00020680653171423565 ,-0.00011870779282835021 ,9.449606827571814e-05  ,18.113576581764235     ,0.0 ,50.423814452890795    ,3.6995569467366023      ,        0.0 ,        0.0 , 0.0
 0.0 ,0.0 ,           0.0 ,            0.0 ,            0.0 ,            0.0 ,              0.0 ,                   0.0 , 241.0 ,109.8578 ,-8.38543  ,           0.0 ,           0.0 ,       0.0 ,71.05323       ,-15.49075   ,0.002037505      ,0.0003596506     ,                 0.0 ,             0.0 ,             0.0 ,                 0.0 ,                 0.0 ,        0.0 ,3.650888164750983      ,            0.0 ,            0.0 ,            0.0 ,              0.0 ,                   0.0 ,  0.0 ,0.0 , 212.5098962511006   ,1.0                ,0.0 ,-80.6947461464261   ,-155.8368728804682  ,-0.009492190599847863   ,-78.58391758052304  ,          0.0 ,          0.0 ,-80.69432593383823  ,-155.83729503206098 ,-78.58391758052304  ,-315.1155075215513  , 44.005844968000034  ,105.03847621931737  , 76.22036387314766   ,-75.70670860136718    ,-150.84879946075222 ,-0.009492190599847863   ,-73.59588003546412  ,          0.0 ,          0.0 ,-75.7062883887793    ,-150.8492246589295  ,-73.59588003546412  ,-300.1513644130195  , 44.005844968000034  ,100.05047731559068   , 76.22036387314766   ,-2.72854677524836e-06   ,-6.7238585130812e-07    ,-2.9416669109802833e-06 ,      0.0 ,      0.0 ,      0.0 ,1.3441426395589532e-06  ,-4.745075556360121e-06  ,      0.0 ,-3.400932617089379e-06  ,3.30823910901668e-06   ,0.13025353441039506  ,0.008438166603294857    ,-0.0002691112135759552  ,-2.1596064684933247e-05 ,0.00028986980222544894 ,59.39775104643734      ,0.0 ,13.500815887258927    ,0.7604369391143209      ,        0.0 ,        0.0 , 0.0
 0.0 ,0.0 ,           0.0 ,            0.0 ,            0.0 ,            0.0 ,              0.0 ,                   0.0 , 242.0 ,107.9603 ,-8.601703 ,           0.0 ,           0.0 ,       0.0 ,79.10803       ,-16.51251   ,0.001931648      ,0.0002893733     ,                 0.0 ,             0.0 ,             0.0 ,                 0.0 ,                 0.0 ,        0.0 ,1.9787652683448422     ,            0.0 ,            0.0 ,            0.0 ,              0.0 ,                   0.0 ,  0.0 ,0.0 , 141.79534851998488  ,1.0                ,0.0 ,-82.4413298647207   ,-159.5706330175397  ,0.07816516842699346     ,-80.36561679371216  ,          0.0 ,          0.0 ,-82.4409831822262   ,-159.57100099083976 ,-80.36561679371216  ,-322.3775880826291  , 45.14212889956603   ,107.45918990725764  , 78.18845896534582   ,-77.45363039431552    ,-154.58291008846552 ,0.07816516842699346     ,-75.377917323307    ,          0.0 ,          0.0 ,-77.45328371182103   ,-154.5832518091382  ,-75.377917323307    ,-307.41444053752446 , 45.14212889956603   ,102.47149019468782   , 78.18845896534582   ,8.972965120357428e-07   ,-7.243065820118373e-07  ,5.126288497933843e-07   ,      0.0 ,      0.0 ,      0.0 ,2.4192816752921565e-06  ,-2.246291410848777e-06  ,      0.0 ,1.729903652069424e-07   ,2.4653427083629924e-06 ,0.19092461261618346  ,0.01722067546366302     ,-0.00017638890871505636 ,-3.066666537431117e-05  ,0.00021289303725575455 ,51.47411216575226      ,0.0 ,19.810329745669467    ,1.3097593309034892      ,        0.0 ,        0.0 , 0.0
 0.0 ,0.0 ,           0.0 ,            0.0 ,            0.0 ,            0.0 ,              0.0 ,                   0.0 , 243.0 ,106.0483 ,-8.780375 ,           0.0 ,           0.0 ,       0.0 ,84.48114       ,-17.22849   ,0.002393106      ,0.0002459845     ,                 0.0 ,             0.0 ,             0.0 ,                 0.0 ,                 0.0 ,        0.0 ,0.995274503758425      ,            0.0 ,            0.0 ,            0.0 ,              0.0 ,                   0.0 ,  0.0 ,0.0 , 141.71377546531048  ,1.0                ,0.0 ,-83.84904127193155  ,-162.65308006366286 ,0.10432245970648636     ,-81.8399223941482   ,          0.0 ,          0.0 ,-83.84873770086176  ,-162.65337876947535 ,-81.8399223941482   ,-328.3420438285117  , 46.088747365980396  ,109.44732464455652  , 79.8280542641712    ,-78.86050075397819    ,-157.6644746825818  ,0.10432245970648636     ,-76.8513868874762   ,          0.0 ,          0.0 ,-78.86019718290841   ,-157.66477326493296 ,-76.8513868874762   ,-313.3763774276979  , 46.088747365980396  ,104.45879413469012   , 79.8280542641712    ,1.982452449428775e-06   ,-5.213332449019449e-07  ,1.9181825983485747e-06  ,      0.0 ,      0.0 ,      0.0 ,2.3076116156301638e-06  ,-8.464919134660818e-07  ,      0.0 ,1.4611197021640821e-06  ,1.6324820851231926e-06 ,0.06810943653336074  ,-3.9270958637653656e-05 ,-0.00011024762693056542 ,-1.442197921695865e-07  ,0.00016553930904302186 ,74.04112324298282      ,0.0 ,0.09316440518911823   ,0.006159561732242       ,        0.0 ,        0.0 , 0.0
 0.0 ,0.0 ,           0.0 ,            0.0 ,            0.0 ,            0.0 ,              0.0 ,                   0.0 , 244.0 ,104.1346 ,-8.940175 ,           0.0 ,           0.0 ,       0.0 ,87.65901       ,-17.70608   ,0.003537684      ,0.0001143715     ,                 0.0 ,             0.0 ,             0.0 ,                 0.0 ,                 0.0 ,        0.0 ,1.9846057909614736     ,            0.0 ,            0.0 ,            0.0 ,              0.0 ,                   0.0 ,  0.0 ,0.0 , 142.8469905348333   ,1.0                ,0.0 ,-86.06259792114572  ,-165.35440300852326 ,-0.12493743063942002    ,-83.40693013710737  ,          0.0 ,          0.0 ,-86.06204218683044  ,-165.35494877511576 ,-83.40693013710737  ,-334.82391631631447 , 46.56627483900985   ,111.60796192583905  , 80.65514991957102   ,-81.07085513591417    ,-160.36266513764107 ,-0.12493743063942002    ,-78.41519234566748  ,          0.0 ,          0.0 ,-81.07030436311332   ,-160.36321090423357 ,-78.41519234566748  ,-319.84870245533523 , 46.56627483900985   ,106.61624422378682   , 80.65514991957102   ,-1.6488695331530734e-06 ,-3.4496115206109213e-07 ,-6.289627557258534e-07  ,      0.0 ,      0.0 ,      0.0 ,-2.7307639840066317e-07 ,-1.720753939507489e-06  ,      0.0 ,-1.9938307348293102e-06 ,9.247826372606455e-07  ,0.29088973345282076  ,0.03108385577457173     ,-3.928199717750845e-05  ,-2.208767143196654e-05  ,3.06309106870243e-05   ,47.637640146986286     ,0.0 ,40.214310696370774    ,2.4982691613420767      ,        0.0 ,        0.0 , 0.0
 0.0 ,0.0 ,           0.0 ,            0.0 ,            0.0 ,            0.0 ,              0.0 ,                   0.0 , 245.0 ,102.2258 ,-9.086387 ,           0.0 ,           0.0 ,       0.0 ,89.29491       ,-18.01588   ,0.004652149      ,2.760433e-05     ,                 0.0 ,             0.0 ,             0.0 ,                 0.0 ,                 0.0 ,        0.0 ,0.9965492622630703     ,            0.0 ,            0.0 ,            0.0 ,              0.0 ,                   0.0 ,  0.0 ,0.0 , 143.9400513859725   ,1.0                ,0.0 ,-87.30293851820822  ,-167.48947979010012 ,-0.022280122729359093   ,-84.47906523096646  ,          0.0 ,          0.0 ,-87.30228208346571  ,-167.49012660263634 ,-84.47906523096646  ,-339.2714738662012  , 47.133072083503265  ,113.09052439201788  , 81.63687060232735   ,-82.31146430107236    ,-162.49799085720326 ,-0.022280122729359093   ,-79.48758606256708  ,          0.0 ,          0.0 ,-82.31080291506635   ,-162.4986871823745  ,-79.48758606256708  ,-324.2970558899981  , 47.133072083503265  ,108.09903050785749   , 81.63687060232735   ,6.704629599361455e-08   ,7.560568798863076e-08   ,1.60316234647375e-06    ,      0.0 ,      0.0 ,      0.0 ,9.072098733885546e-07   ,-7.645578188293079e-07  ,      0.0 ,1.4265197433158077e-07  ,8.403571428597295e-07  ,0.5156691922388985   ,0.05825730694427124     ,-4.080438375781846e-05  ,-5.656708497734889e-05  ,0.0                    ,6.99588654537361e-05   ,0.0 ,86.03555944663204     ,4.991473196005267       ,        0.0 ,        0.0 , 0.0
 0.0 ,0.0 ,           0.0 ,            0.0 ,            0.0 ,            0.0 ,              0.0 ,                   0.0 , 246.0 ,100.3289 ,-9.224284 ,           0.0 ,           0.0 ,       0.0 ,89.91156       ,-18.21544   ,0.003977861      ,-1.451952e-05    ,                 0.0 ,             0.0 ,             0.0 ,                 0.0 ,                 0.0 ,        0.0 ,0.9909693057963491     ,            0.0 ,            0.0 ,            0.0 ,              0.0 ,                   0.0 ,  0.0 ,0.0 , 144.93713498559106  ,1.0                ,0.0 ,-88.88744092184956  ,-169.39325831254015 ,-0.31728370415334406    ,-85.60745376690087  ,          0.0 ,          0.0 ,-88.8860380802982   ,-169.3946010383366  ,-85.60745376690087  ,-343.8880977294383  , 47.456769349665024  ,114.62936562844388  , 82.19754045279595   ,-83.89597004749922    ,-164.40171756977063 ,-0.31728370415334406    ,-80.61597794065214  ,          0.0 ,          0.0 ,-83.89456720594788   ,-164.40316023660438 ,-80.61597794065214  ,-328.9136753832044  , 47.456769349665024  ,109.6378901634229    , 82.19754045279595   ,9.92207635365769e-07    ,-2.3395486199546907e-07 ,1.1930812884366992e-06  ,      0.0 ,      0.0 ,      0.0 ,1.2348225493436298e-06  ,-4.765697758554044e-07  ,      0.0 ,7.58252723874901e-07    ,8.832705798001729e-07  ,0.05856226188677364  ,8.694401048895131e-06   ,-3.37592445291838e-05   ,-3.0965444488382755e-08 ,4.389790588964378e-05  ,85.8521708599574       ,0.0 ,0.047491732732692506  ,0.0029424707991212444   ,        0.0 ,        0.0 , 0.0
 0.0 ,0.0 ,           0.0 ,            0.0 ,            0.0 ,            0.0 ,              0.0 ,                   0.0 , 247.0 ,98.45008 ,-9.369428 ,           0.0 ,           0.0 ,       0.0 ,89.76137       ,-18.34556   ,-0.0009986999    ,-0.0004605424    ,                 0.0 ,             0.0 ,             0.0 ,                 0.0 ,                 0.0 ,        0.0 ,1.0166579967782547     ,            0.0 ,            0.0 ,            0.0 ,              0.0 ,                   0.0 ,  0.0 ,0.0 , 145.28246162606322  ,1.0                ,0.0 ,-90.79070975145632  ,-171.8416768871462  ,-1.0007800920250425     ,-86.98597087942571  ,          0.0 ,          0.0 ,-90.7782316336199   ,-171.8541802780809  ,-86.98597087942571  ,-349.61835298867754 , 47.94231729201753   ,116.53948355479147  , 83.03852613543992   ,-85.79904986867064    ,-166.85001710509016 ,-1.0007800920250425     ,-81.99431099664002  ,          0.0 ,          0.0 ,-85.7865717508342    ,-166.86252049602484 ,-81.99431099664002  ,-334.6433724803578  , 47.94231729201753   ,111.54780904583366   , 83.03852613543992   ,7.94088810249356e-07    ,-1.8094223640553057e-07 ,1.0895723958976034e-06  ,      0.0 ,      0.0 ,      0.0 ,1.0416554362876493e-06  ,-4.285088624438239e-07  ,      0.0 ,6.131463774851355e-07   ,7.560919286709572e-07  ,0.28396933150432574  ,0.02672545995005088     ,-1.987366288992335e-05  ,-1.6213499765623998e-05 ,7.332468224501591e-06  ,40.028174637463366     ,0.0 ,47.17107577419766     ,2.50903439393312        ,        0.0 ,        0.0 , 0.0
 0.0 ,0.0 ,           0.0 ,            0.0 ,            0.0 ,            0.0 ,              0.0 ,                   0.0 , 248.0 ,96.59246 ,-9.577572 ,           0.0 ,           0.0 ,       0.0 ,88.56013       ,-18.43359   ,-0.002029374     ,-0.001059048     ,                 0.0 ,             0.0 ,             0.0 ,                 0.0 ,                 0.0 ,        0.0 ,0.023142143769060985   ,            0.0 ,            0.0 ,            0.0 ,              0.0 ,                   0.0 ,  0.0 ,0.0 , 146.52755440034215  ,0.9999999999999999 ,0.0 ,-92.73192391055674  ,-175.2727135780601  ,-1.6959756131403794     ,-88.749327832952    ,          0.0 ,          0.0 ,-92.69183578075216  ,-175.3128417078647  ,-88.749327832952    ,-356.7539755767667  , 48.88022589714337   ,118.91802467798573  , 84.66303521239317   ,-87.74008076590592    ,-170.28086549866154 ,-1.6959756131403794     ,-83.75748468830118  ,          0.0 ,          0.0 ,-87.69999263610133   ,-170.32094443949836 ,-83.75748468830118  ,-341.7784305671662  , 48.88022589714337   ,113.92617659858713   , 84.66303521239317   ,3.2292462560820545e-08  ,-1.2129777233451087e-08 ,1.7506044363160488e-08  ,      0.0 ,      0.0 ,      0.0 ,3.395494788490234e-08   ,-1.3792262557532888e-08 ,      0.0 ,2.016268532736946e-08   ,2.4572891379487336e-08 ,0.060381056543615884 ,0.0003954956924017335   ,-9.489474901299912e-06  ,-8.096294425701831e-08  ,1.1245826238110012e-05 ,87.75347698895158      ,0.0 ,0.7398153803548685    ,0.03851793065613564     ,        0.0 ,        0.0 , 0.0
 0.0 ,0.0 ,           0.0 ,            0.0 ,            0.0 ,            0.0 ,              0.0 ,                   0.0 , 249.0 ,94.74797 ,-9.948462 ,           0.0 ,           0.0 ,       0.0 ,85.47607       ,-18.49607   ,-0.006195688     ,0.000292819      ,                 0.0 ,             0.0 ,             0.0 ,                 0.0 ,                 0.0 ,        0.0 ,1.4922375530978917     ,            0.0 ,            0.0 ,            0.0 ,              0.0 ,                   0.0 ,  0.0 ,0.0 , 147.27177395309542  ,1.0                ,0.0 ,-95.90404756914727  ,-180.5615935537263  ,-2.6349808495527847     ,-91.57860433035735  ,          0.0 ,          0.0 ,-95.82184584136272  ,-180.64381487857122 ,-91.57860433035735  ,-368.044235690875   , 50.24232311867012   ,122.68144523029166  , 87.02226283617395   ,-90.91333089707511    ,-175.57083252801937 ,-2.6349808495527847     ,-86.58788773063361  ,          0.0 ,          0.0 ,-90.83107950038719   ,-175.653054058852   ,-86.58788773063361  ,-353.07205064928905 , 50.24232311867012   ,117.69068348110041   , 87.02226283617395   ,1.194884350017252e-06   ,-4.2554839653342535e-07 ,1.5783312038988394e-06  ,      0.0 ,      0.0 ,      0.0 ,1.51570000414525e-06    ,-7.463640009201717e-07  ,      0.0 ,7.693360032250783e-07   ,1.152630151463732e-06  ,0.29430888339088407  ,0.03461523530189786     ,-6.620827915899938e-06  ,-4.1910957025927285e-06 ,3.897648562611977e-06  ,47.82516350746515      ,0.0 ,36.73387102539434     ,2.5172882154730756      ,        0.0 ,        0.0 , 0.0
 0.0 ,0.0 ,           0.0 ,            0.0 ,            0.0 ,            0.0 ,              0.0 ,                   0.0 , 250.0 ,92.80195 ,-10.18775 ,           0.0 ,           0.0 ,       0.0 ,83.46813       ,-18.53456   ,-0.02657745      ,8.295073e-05     ,                 0.0 ,             0.0 ,             0.0 ,                 0.0 ,                 0.0 ,        0.0 ,3.4739850592996975     ,            0.0 ,            0.0 ,            0.0 ,              0.0 ,                   0.0 ,  0.0 ,0.0 , 149.34128626824332  ,1.0                ,0.0 ,-97.14943690778742  ,-185.16767585545512 ,-4.095405807356318      ,-93.65348765259166  ,          0.0 ,          0.0 ,-96.93939152287467  ,-185.37769093275853 ,-93.65348765259166  ,-375.97060041583416 , 52.035577342045855  ,125.32356680527806  , 90.12826788525993   ,-92.15894801938178    ,-180.1771284152541  ,-4.095405807356318      ,-88.66299772612726  ,          0.0 ,          0.0 ,-91.94885418521005   ,-180.38719194181647 ,-88.66299772612726  ,-360.9990539556902  , 52.035577342045855  ,120.33301832701824   , 90.12826788525993   ,-3.646353576035909e-07  ,-5.5208345028574e-07    ,1.1095839573841905e-06  ,      0.0 ,      0.0 ,      0.0 ,1.3708868392533432e-06  ,-2.2876054471553686e-06 ,      0.0 ,-9.16718355338614e-07   ,1.994876227710745e-06  ,0.526174531344231    ,0.06093700970749877     ,-4.561985167893872e-06  ,-5.6818860324777434e-06 ,0.0                    ,7.290104973238096e-06  ,0.0 ,83.58346889524667     ,4.990507887803334       ,        0.0 ,        0.0 , 0.0
 0.0 ,0.0 ,           0.0 ,            0.0 ,            0.0 ,            0.0 ,              0.0 ,                   0.0 , 251.0 ,90.79803 ,-10.38233 ,           0.0 ,           0.0 ,       0.0 ,81.77617       ,-18.55995   ,-0.0572575       ,-0.001113637     ,                 0.0 ,             0.0 ,             0.0 ,                 0.0 ,                 0.0 ,        0.0 ,2.9672052108264158     ,            0.0 ,            0.0 ,            0.0 ,              0.0 ,                   0.0 ,  0.0 ,0.0 , 157.45615111944335  ,1.0                ,0.0 ,-98.15877809040654  ,-189.35285421876455 ,-6.555917850738453      ,-95.42871879632241  ,          0.0 ,          0.0 ,-97.68333542527125  ,-189.82825193923765 ,-95.42871879632241  ,-382.9403155882972  , 53.87360707632905   ,127.64677945707825  , 93.31183441936965   ,-93.17082164591692    ,-184.36487497399594 ,-6.555917850738453      ,-90.44076235183279  ,          0.0 ,          0.0 ,-92.69537637453999   ,-184.84029875688546 ,-90.44076235183279  ,-367.9764290086375  , 53.87360707632905   ,122.65882627472604   , 93.31183441936965   ,-1.5643848943286099e-06 ,-7.552462256033691e-08  ,5.359444742046203e-07   ,      0.0 ,      0.0 ,      0.0 ,6.452754998940055e-07   ,-2.285184944553393e-06  ,      0.0 ,-1.6399091743702015e-06 ,1.6225201047612831e-06 ,0.2937431470088547   ,0.025692165245813196    ,-3.3087417022501424e-06 ,-1.5262414660049426e-06 ,3.881829712959534e-06  ,36.34166872431047      ,0.0 ,46.36196329863491     ,2.4388861309960705      ,        0.0 ,        0.0 , 0.0
 0.0 ,0.0 ,           0.0 ,            0.0 ,            0.0 ,            0.0 ,              0.0 ,                   0.0 , 252.0 ,88.7479  ,-10.56644 ,           0.0 ,           0.0 ,       0.0 ,80.11301       ,-18.57774   ,-0.09295169      ,-0.001866518     ,                 0.0 ,             0.0 ,             0.0 ,                 0.0 ,                 0.0 ,        0.0 ,1.8923977434892847     ,            0.0 ,            0.0 ,            0.0 ,              0.0 ,                   0.0 ,  0.0 ,0.0 , 157.7350423998982   ,1.0                ,0.0 ,-96.73195795538817  ,-195.46621218050174 ,-8.656892958854913      ,-97.49409041873388  ,          0.0 ,          0.0 ,-95.91111126607058  ,-196.2870377411558  ,-97.49409041873388  ,-389.69222669520474 , 57.52424585502178   ,129.8974009755953   , 99.63490685779965   ,-91.74470922157766    ,-190.47892600048993 ,-8.656892958854913      ,-92.50684168492337  ,          0.0 ,          0.0 ,-90.92385634383915   ,-191.29982645354664 ,-92.50684168492337  ,-374.73045605576516 , 57.52424585502178   ,124.91017667979293   , 99.63490685779965   ,-1.2083281529327861e-06 ,3.9152961425741505e-07  ,9.31235563490184e-07    ,      0.0 ,      0.0 ,      0.0 ,9.819387392041139e-07   ,-1.7987372020782933e-06 ,      0.0 ,-8.167983888905658e-07  ,1.4469143234688105e-06 ,0.14125630833758276  ,0.007188910971790291    ,-3.05159443414999e-06   ,-1.2313528358843534e-07 ,5.1386635002607106e-06 ,69.37435120437439      ,0.0 ,11.744643647593243    ,0.6494145328472894      ,        0.0 ,        0.0 , 0.0
 0.0 ,0.0 ,           0.0 ,            0.0 ,            0.0 ,            0.0 ,              0.0 ,                   0.0 , 253.0 ,86.65028 ,-10.7394  ,           0.0 ,           0.0 ,       0.0 ,78.51444       ,-18.59084   ,-0.1549003       ,-0.006888208     ,                 0.0 ,             0.0 ,             0.0 ,                 0.0 ,                 0.0 ,        0.0 ,3.4575191868915347     ,            0.0 ,            0.0 ,            0.0 ,              0.0 ,                   0.0 ,  0.0 ,0.0 , 158.47984189729925  ,1.0                ,0.0 ,-93.49469558522038  ,-200.02141498269793 ,-8.093301334616553      ,-98.70997800307244  ,          0.0 ,          0.0 ,-92.77651646928564  ,-200.7395675132389  ,-98.70997800307244  ,-392.22603897408015 , 60.75045334702606   ,130.74203981707578  ,105.22286889722221   ,-88.50767647744911    ,-195.0343583568277  ,-8.093301334616553      ,-93.72295889530116  ,          0.0 ,          0.0 ,-87.78949638537173   ,-195.75258592356658 ,-93.72295889530116  ,-377.2650094074389  , 60.75045334702606   ,125.75499295263198   ,105.22286889722221   ,-2.162719208349219e-06  ,3.544801958208858e-07   ,2.2148994482584269e-07  ,      0.0 ,      0.0 ,      0.0 ,9.835771255882582e-07   ,-2.7918159574946523e-06 ,      0.0 ,-1.8082388624559373e-06 ,2.012830709461212e-06  ,0.4390284399200335   ,0.03609071158384531     ,-1.802182231031366e-06  ,-6.178896159764157e-07  ,2.9829226166224393e-06 ,20.61575980814533      ,0.0 ,58.934313071844784    ,3.2587450535437053      ,        0.0 ,        0.0 , 0.0
 0.0 ,0.0 ,           0.0 ,            0.0 ,            0.0 ,            0.0 ,              0.0 ,                   0.0 , 254.0 ,84.52036 ,-10.86439 ,           0.0 ,           0.0 ,       0.0 ,77.36307       ,-18.60069   ,-0.1805671       ,0.003605295      ,                 0.0 ,             0.0 ,             0.0 ,                 0.0 ,                 0.0 ,        0.0 ,2.3920318641437417     ,            0.0 ,            0.0 ,            0.0 ,              0.0 ,                   0.0 ,  0.0 ,0.0 , 160.1465680156129   ,1.0                ,0.0 ,-89.61853990089354  ,-205.07421563476592 ,-7.69486110790759       ,-100.07308582021835 ,          0.0 ,          0.0 ,-88.93015381561379  ,-205.762633542342   ,-100.07308582021835 ,-394.7658067743747  , 64.51616221428894   ,131.5885882228029   ,111.74527124823746   ,-84.63181783878787    ,-200.08747968618178 ,-7.69486110790759       ,-95.08635793486911  ,          0.0 ,          0.0 ,-83.94340028917007   ,-200.7758880791332  ,-95.08635793486911  ,-379.8056055404674  , 64.51616221428894   ,126.60185227421877   ,111.74527124823746   ,-8.944918017117479e-07  ,2.1831028212844695e-07  ,8.876520892573696e-07   ,      0.0 ,      0.0 ,      0.0 ,5.748514805638947e-07   ,-1.251032777070479e-06  ,      0.0 ,-6.761814290979255e-07  ,9.442329500145458e-07  ,0.29092987517313496  ,0.03604644607596119     ,-1.6239063332055044e-06 ,-4.785462635063106e-07  ,1.076546533017914e-06  ,50.46796857618256      ,0.0 ,26.608807843579797    ,2.0799478533016273      ,        0.0 ,        0.0 , 0.0
 0.0 ,0.0 ,           0.0 ,            0.0 ,            0.0 ,            0.0 ,              0.0 ,                   0.0 , 255.0 ,82.46505 ,-10.77002 ,           0.0 ,           0.0 ,       0.0 ,78.37833       ,-18.60785   ,-0.1234424       ,0.007621843      ,                 0.0 ,             0.0 ,             0.0 ,                 0.0 ,                 0.0 ,        0.0 ,3.344118561542569      ,            0.0 ,            0.0 ,            0.0 ,              0.0 ,                   0.0 ,  0.0 ,0.0 , 145.35297962823896  ,1.0                ,0.0 ,-84.49691652377567  ,-206.1072316791691  ,-3.4377865806854593     ,-99.60967861952028  ,          0.0 ,          0.0 ,-84.3792748525906   ,-206.22491070817347 ,-99.60967861952028  ,-390.21383264507494 , 66.3904643971605    ,130.07127508039696  ,114.9916643198488    ,-79.50747866674168    ,-201.11779747382846 ,-3.4377865806854593     ,-94.62023965969894  ,          0.0 ,          0.0 ,-79.38983186308643   ,-201.23547650283282 ,-94.62023965969894  ,-375.2455252745723  , 66.3904643971605    ,125.08184087505633   ,114.9916643198488    ,-2.0953640523534536e-06 ,3.8589248643772465e-07  ,6.892695774045764e-07   ,      0.0 ,      0.0 ,      0.0 ,6.962219221049202e-07   ,-2.405693602325931e-06  ,      0.0 ,-1.70947153360895e-06   ,1.6449446534246504e-06 ,0.06434672648341647  ,-1.4280064425806485e-06 ,-6.599083223575028e-07  ,0.0                     ,1.57381397180616e-06   ,78.76483225922959      ,0.0 ,0.0                   ,0.0                     ,        0.0 ,        0.0 , 0.0
 0.0 ,0.0 ,           0.0 ,            0.0 ,            0.0 ,            0.0 ,              0.0 ,                   0.0 , 256.0 ,80.56032 ,-10.70037 ,           0.0 ,           0.0 ,       0.0 ,79.13365       ,-18.61374   ,-0.02114129      ,0.009210926      ,                 0.0 ,             0.0 ,             0.0 ,                 0.0 ,                 0.0 ,        0.0 ,3.8752881829725663     ,            0.0 ,            0.0 ,            0.0 ,              0.0 ,                   0.0 ,  0.0 ,0.0 , 201.21400789726772  ,1.0                ,0.0 ,-81.65263918859267  ,-204.2260833130594  ,-0.4152965561525022     ,-98.33134915170209  ,          0.0 ,          0.0 ,-81.62919503957468  ,-204.24952370520182 ,-98.33134915170209  ,-384.210061591584   , 66.50225151231993   ,128.07002109497944  ,115.18528601252393   ,-76.66245798213583    ,-199.23589870391893 ,-0.4152965561525022     ,-93.34117749102158  ,          0.0 ,          0.0 ,-76.6390184366706    ,-199.25933909606132 ,-93.34117749102158  ,-369.23956627087165 , 66.50225151231993   ,123.0798887569572    ,115.18528601252393   ,-3.738844647239734e-06  ,6.117448231508592e-07   ,-2.2229145709030738e-07 ,      0.0 ,      0.0 ,      0.0 ,6.234067326893628e-07   ,-3.750506754929673e-06  ,      0.0 ,-3.1270994097691283e-06 ,2.3662151059931046e-06 ,0.10178255109126592  ,0.0035375624075301556   ,-4.2649776184070444e-07 ,-5.966848733300184e-08  ,8.686495918097881e-07  ,75.38909037612041      ,0.0 ,5.485587702068573     ,0.3112772033695978      ,        0.0 ,        0.0 , 0.0
 0.0 ,0.0 ,           0.0 ,            0.0 ,            0.0 ,            0.0 ,              0.0 ,                   0.0 , 257.0 ,3.807675 ,-13.01005 ,           0.0 ,           0.0 ,       0.0 ,51.83531       ,-18.19358   ,-0.02663848      ,0.002301453      ,                 0.0 ,             0.0 ,             0.0 ,                 0.0 ,                 0.0 ,        0.0 ,1.4892486781777523     ,            0.0 ,            0.0 ,            0.0 ,              0.0 ,                   0.0 ,  0.0 ,0.0 , 263.8071418338203   ,1.0                ,0.0 ,-107.37727777556452 ,-242.04972910754498 ,-2.314943526481631      ,-118.60453556174402 ,          0.0 ,          0.0 ,-107.3333710467859  ,-242.09365729757553 ,-118.60453556174402 ,-468.03158688991493 , 74.77422017741293   ,156.01050363497447  ,129.5127321344013    ,-102.3983167197861    ,-237.0708261604618  ,-2.314943526481631      ,-113.62557450596557 ,          0.0 ,          0.0 ,-102.35440999100746  ,-237.11473033548378 ,-113.62557450596557 ,-453.0947035862314  , 74.77422017741293   ,151.03157667288275   ,129.5127321344013    ,3.0811635096082577e-06  ,-4.822972343563483e-06  ,-9.033992184714922e-07  ,      0.0 ,      0.0 ,      0.0 ,3.111907765717552e-06   ,-4.853716599672777e-06  ,      0.0 ,-1.7418085938051401e-06 ,4.015402824564805e-06  ,0.2210205506928      ,0.01635740017608091     ,4.705983613967716e-06   ,-1.3412107534227231e-06 ,2.2571307618471075e-06 ,37.28139334810804      ,0.0 ,19.891373668790422    ,1.274255596518062       ,        0.0 ,        0.0 , 0.0
 0.0 ,0.0 ,           0.0 ,            0.0 ,            0.0 ,            0.0 ,              0.0 ,                   0.0 , 258.0 ,3.760422 ,-14.93985 ,           0.0 ,           0.0 ,       0.0 ,33.81203       ,-18.32105   ,-0.02902431      ,0.003172643      ,                 0.0 ,             0.0 ,             0.0 ,                 0.0 ,                 0.0 ,        0.0 ,3.0087475864518916     ,            0.0 ,            0.0 ,            0.0 ,              0.0 ,                   0.0 ,  0.0 ,0.0 , 186.36788571654463  ,1.0                ,0.0 ,-123.18805891333425 ,-278.07859770163435 ,-2.974424704582664      ,-136.2557299226455  ,          0.0 ,          0.0 ,-123.12334893630032 ,-278.1433570952143  ,-136.2557299226455  ,-537.5224359541602  , 85.96519035962174   ,179.17414526936182  ,148.8960760563849    ,-118.23242847043674   ,-273.12296740481156 ,-2.974424704582664      ,-131.30004904236864 ,          0.0 ,          0.0 ,-118.1677184934028   ,-273.1876773818455  ,-131.30004904236864 ,-522.6553955010709  , 85.96519035962174   ,174.21846555599296   ,148.8960760563849    ,4.4747788442718195e-06  ,-6.560536309593754e-06  ,-1.7724779509553253e-06 ,      0.0 ,      0.0 ,      0.0 ,4.583289809387762e-06   ,-6.669047274709697e-06  ,      0.0 ,-2.0857569711564744e-06 ,5.658666253088434e-06  ,0.12943373119830043  ,-6.068398690410793e-06  ,-8.821169485139289e-07  ,0.0                     ,6.219370637556754e-06  ,40.47432710808348      ,0.0 ,0.0                   ,0.0                     ,        0.0 ,        0.0 , 0.0
 0.0 ,0.0 ,           0.0 ,            0.0 ,            0.0 ,            0.0 ,              0.0 ,                   0.0 , 259.0 ,3.70385  ,-16.86389 ,           0.0 ,           0.0 ,       0.0 ,16.14678       ,-18.47857   ,-0.02751338      ,0.003371171      ,                 0.0 ,             0.0 ,             0.0 ,                 0.0 ,                 0.0 ,        0.0 ,3.996716216555093      ,            0.0 ,            0.0 ,            0.0 ,              0.0 ,                   0.0 ,  0.0 ,0.0 , 186.78876764531978  ,1.0                ,0.0 ,-143.08603657070586 ,-314.16667551856546 ,-3.9279779200740497     ,-154.64190181803838 ,          0.0 ,          0.0 ,-142.98713276624008 ,-314.2655796514096  ,-154.64190181803838 ,-611.894614235688   , 95.70594459652371   ,203.96485468136268  ,165.76754746835172   ,-138.3111128003193    ,-309.3918019397788  ,-3.9279779200740497     ,-149.8669780476518  ,          0.0 ,          0.0 ,-138.21215951583176  ,-309.4906558810231  ,-149.8669780476518  ,-597.5697931161283  , 95.70594459652371   ,199.18993091097616   ,165.76754746835172   ,4.463191714881433e-06   ,-1.0500028045189856e-05 ,-3.450545953547081e-06  ,      0.0 ,      0.0 ,      0.0 ,4.683457675712709e-06   ,-1.0720293504653347e-05 ,      0.0 ,-6.036833834411775e-06  ,7.974322265927465e-06  ,0.6509905339410297   ,0.2732105480518844      ,-7.653211399512881e-05  ,-6.622878100277507e-07  ,0.0                    ,7.672148802418627e-05  ,0.0 ,21.26337137568517     ,4.7749360380299795      ,        0.0 ,        0.0 , 0.0
 0.0 ,0.0 ,           0.0 ,            0.0 ,            0.0 ,            0.0 ,              0.0 ,                   0.0 , 260.0 ,3.678068 ,-18.78436 ,           0.0 ,           0.0 ,       0.0 ,-1.451868      ,-18.63918   ,-0.0277087       ,0.00392026       ,                 0.0 ,             0.0 ,             0.0 ,                 0.0 ,                 0.0 ,        0.0 ,3.0                    ,            0.0 ,            0.0 ,            0.0 ,              0.0 ,                   0.0 ,  0.0 ,0.0 , 187.3476718169656   ,1.0                ,0.0 ,-161.75580874115977 ,-344.52924820319356 ,-4.895466858096734      ,-170.22563291024622 ,          0.0 ,          0.0 ,-161.61337105815394 ,-344.67178522690654 ,-170.22563291024622 ,-676.5107891953066  ,103.29761331617159   ,225.50361280978512  ,178.91674374932094   ,-163.07768118748285   ,-345.8511206495166  ,-4.895466858096734      ,-171.5475053565693  ,          0.0 ,          0.0 ,-162.935243504477    ,-345.99365767322956 ,-171.5475053565693  ,-680.4763564276174  ,103.29761331617159   ,226.82548525610815   ,178.91674374932094   ,-1.3492839067418435e-07 ,-2.334690127956133e-05  ,-4.391221406852952e-06  ,      0.0 ,      0.0 ,      0.0 ,7.745400022609308e-08   ,-2.3559283165943275e-05 ,      0.0 ,-2.3481835146946398e-05 ,1.3651112474523939e-05 ,0.824327157536353    ,0.19923024821896487     ,-0.000252122461870626   ,8.304047179601265e-06   ,0.0029131510790959586  ,-3.5780074498803374    ,0.0 ,5.5193594496365295    ,2.2563376839132228      ,        0.0 ,        0.0 , 0.0
 0.0 ,0.0 ,           0.0 ,            0.0 ,            0.0 ,            0.0 ,              0.0 ,                   0.0 , 261.0 ,3.684277 ,-20.70376 ,           0.0 ,           0.0 ,       0.0 ,-19.44201      ,-18.75956   ,-0.02875741      ,0.004696121      ,                 0.0 ,             0.0 ,             0.0 ,                 0.0 ,                 0.0 ,        0.0 ,2.5022046186337095     ,            0.0 ,            0.0 ,            0.0 ,              0.0 ,                   0.0 ,  0.0 ,0.0 , 188.17913883929745  ,0.9999999999999999 ,0.0 ,-175.2348436330264  ,-365.7272567437094  ,-5.9631658656128135     ,-181.40843434328127 ,          0.0 ,          0.0 ,-175.0333525289674  ,-365.9287478477683  ,-181.40843434328127 ,-722.3705852622567  ,108.42313129821108   ,240.79019544891204  ,187.79436235714033   ,-192.43951596181097   ,-382.93192983519555 ,-5.9631658656128135     ,-198.61310743476747 ,          0.0 ,          0.0 ,-192.238024857752    ,-383.1334209392545  ,-198.61310743476747 ,-773.9845037740137  ,108.42313129821108   ,257.9948179981585    ,187.79436235714033   ,3.368513263277553e-07   ,-2.5970304259300663e-05 ,-3.6618319910040953e-06 ,      0.0 ,      0.0 ,      0.0 ,4.682690009718033e-07   ,-2.6101720389839686e-05 ,      0.0 ,-2.5633453531614475e-05 ,1.5208274915395052e-05 ,0.9999999999999999   ,-0.004720564893624136   ,-8.7749578483417e-05    ,0.0                     ,0.004721486859631894   ,-17.204651302672744    ,0.0 ,0.0                   ,0.0                     ,        0.0 ,        0.0 , 0.0
 0.0 ,0.0 ,           0.0 ,            0.0 ,            0.0 ,            0.0 ,              0.0 ,                   0.0 , 262.0 ,3.710683 ,-22.62406 ,           0.0 ,           0.0 ,       0.0 ,-37.90666      ,-18.83339   ,-0.03297083      ,0.005203395      ,                 0.0 ,             0.0 ,             0.0 ,                 0.0 ,                 0.0 ,        0.0 ,3.488362121206536      ,            0.0 ,            0.0 ,            0.0 ,              0.0 ,                   0.0 ,  0.0 ,0.0 , 189.06387488533835  ,1.0                ,0.0 ,-187.80480416644642 ,-383.5504431792779  ,-6.855868067429435      ,-191.3351661173271  ,          0.0 ,          0.0 ,-187.55060621345908 ,-383.8046908337567  ,-191.3351661173271  ,-762.6904628962809  ,112.23539725391838   ,254.23015392091327  ,194.39746124061125   ,-224.1847833498033    ,-419.93047179586426 ,-6.855868067429435      ,-227.71514503242207 ,          0.0 ,          0.0 ,-223.9305845315367   ,-420.1846697488516  ,-227.71514503242207 ,-871.8303993128104  ,112.23539725391838   ,290.6101331042701    ,194.39746124061125   ,8.583723056369568e-07   ,-1.980865033889538e-05  ,-2.002854305185785e-06  ,      0.0 ,      0.0 ,      0.0 ,9.198819318889929e-07   ,-1.9870158589134017e-05 ,      0.0 ,-1.895027929549643e-05  ,1.1753867276721894e-05 ,0.8029974035609106   ,0.4941128301619606      ,-0.0012812273934858455  ,-8.676796895050663e-06  ,0.0029022397441637385  ,-14.069437834288104    ,0.0 ,-22.309299670488254   ,-22.309299670488254     ,        0.0 ,        0.0 , 0.0
 0.0 ,0.0 ,           0.0 ,            0.0 ,            0.0 ,            0.0 ,              0.0 ,                   0.0 , 263.0 ,3.748883 ,-24.54467 ,           0.0 ,           0.0 ,       0.0 ,-56.71033      ,-18.87363   ,-0.04389281      ,-0.007315961     ,                 0.0 ,             0.0 ,             0.0 ,                 0.0 ,                 0.0 ,        0.0 ,1.0078526945183262     ,            0.0 ,            0.0 ,            0.0 ,              0.0 ,                   0.0 ,  0.0 ,0.0 , 117.00194713632308  ,1.0                ,0.0 ,-199.75083543642074 ,-399.65069814159085 ,-6.901987042130949      ,-200.6557460587943  ,          0.0 ,          0.0 ,-199.5110592579233  ,-399.89042471272296 ,-200.6557460587943  ,-800.0572300294407  ,115.36587442962914   ,266.685726872263    ,199.8195055767107    ,-255.9334891467036    ,-455.8333528318568  ,-6.901987042130949      ,-256.83840074906027 ,          0.0 ,          0.0 ,-255.69366355555454  ,-456.07312901035425 ,-256.83840074906027 ,-968.6050415529239  ,115.36587442962914   ,322.86838156252895   ,199.8195055767107    ,2.1113595847738744e-06  ,-9.341753943965728e-06  ,-6.908890636871211e-07  ,      0.0 ,      0.0 ,      0.0 ,2.1218129688380703e-06  ,-9.352210351588009e-06  ,      0.0 ,-7.230396374897243e-06  ,6.104915989141658e-06  ,0.7935768263272303   ,0.5040459047779758      ,-0.01146084903811431    ,-0.007433458398270717   ,0.0018275970869364494  ,-23.20468346677929     ,0.0 ,-32.96430653848269    ,-32.96430653848269      ,        0.0 ,        0.0 , 0.0
 0.0 ,0.0 ,           0.0 ,            0.0 ,            0.0 ,            0.0 ,              0.0 ,                   0.0 , 264.0 ,5.618313 ,-24.30731 ,           0.0 ,           0.0 ,       0.0 ,-54.83664      ,-18.82364   ,-0.02232813      ,-0.005018062     ,                 0.0 ,             0.0 ,             0.0 ,                 0.0 ,                 0.0 ,        0.0 ,2.9719459882923576     ,            0.0 ,            0.0 ,            0.0 ,              0.0 ,                   0.0 ,  0.0 ,0.0 , 190.7887861081073   ,1.0                ,0.0 ,-198.09426680048372 ,-394.67202018768495 ,-8.203588484556477      ,-198.23182101355766 ,          0.0 ,          0.0 ,-197.75187158605064 ,-395.014513565032   ,-198.23182101355766 ,-790.9981566487978  ,113.75313725427517   ,263.6660522328566   ,197.0262559667243    ,-251.3590976598627    ,-447.9368510470639  ,-8.203588484556477      ,-251.49660235709422 ,          0.0 ,          0.0 ,-251.01665287981507  ,-448.279246261497   ,-251.49660235709422 ,-950.7924987427772  ,113.75313725427517   ,316.93083352662114   ,197.0262559667243    ,-1.2724040499452113e-06 ,-1.691515872511067e-05  ,-2.5979593412270304e-06 ,      0.0 ,      0.0 ,      0.0 ,-1.1644798110140505e-06 ,-1.7023083508218376e-05 ,      0.0 ,-1.818756201547261e-05  ,9.53421980142974e-06   ,0.7999845557897524   ,0.5025178291669997      ,-0.001463041156618556   ,-0.00014628273148624326 ,0.0018260329266793101  ,-30.438995421268896    ,0.0 ,-22.824297328104013   ,-22.824297328104013     ,        0.0 ,        0.0 , 0.0
 0.0 ,0.0 ,           0.0 ,            0.0 ,            0.0 ,            0.0 ,              0.0 ,                   0.0 , 265.0 ,7.481811 ,-24.05969 ,           0.0 ,           0.0 ,       0.0 ,-52.7276       ,-18.78693   ,-0.01520988      ,-0.004583527     ,                 0.0 ,             0.0 ,             0.0 ,                 0.0 ,                 0.0 ,        0.0 ,0.5140294047018112     ,            0.0 ,            0.0 ,            0.0 ,              0.0 ,                   0.0 ,  0.0 ,0.0 , 198.26626969409045  ,1.0                ,0.0 ,-194.89676642411857 ,-387.9584166890381  ,-8.549450631135606      ,-195.1150298455362  ,          0.0 ,          0.0 ,-194.51863628273586 ,-388.3364982610771  ,-195.1150298455362  ,-777.9701643893492  ,111.73042685687608   ,259.3234049492525   ,193.52279751303132   ,-246.65910345190963   ,-439.72075371682917 ,-8.549450631135606      ,-246.87731733173553 ,          0.0 ,          0.0 ,-246.28102187987062  ,-440.0988838582119  ,-246.87731733173553 ,-933.2571735559421  ,111.73042685687608   ,311.0857410325113    ,193.52279751303132   ,-1.090002692127991e-06  ,-8.831378722016695e-06  ,-2.098400007370632e-06  ,      0.0 ,      0.0 ,      0.0 ,-9.500999401066403e-07  ,-8.971279979176444e-06  ,      0.0 ,-9.921382366640915e-06  ,4.928333638454618e-06  ,0.5993191794283603   ,0.990519880364908       ,-0.008969761311319784   ,-0.011902564002340923   ,3.479724825826616e-05  ,-0.5647214162461793    ,0.0 ,-51.18226622006343    ,-51.18226622006343      ,        0.0 ,        0.0 , 0.0
 0.0 ,0.0 ,           0.0 ,            0.0 ,            0.0 ,            0.0 ,              0.0 ,                   0.0 , 266.0 ,9.340117 ,-23.7901  ,           0.0 ,           0.0 ,       0.0 ,-50.28342      ,-18.76176   ,-0.01090716      ,-0.003231068     ,                 0.0 ,             0.0 ,             0.0 ,                 0.0 ,                 0.0 ,        0.0 ,1.0                    ,            0.0 ,            0.0 ,            0.0 ,              0.0 ,                   0.0 ,  0.0 ,0.0 , 199.4326351298171   ,1.0                ,0.0 ,-193.18296799503622 ,-384.16782983121567 ,-9.069677946082285      ,-192.8419204748887  ,          0.0 ,          0.0 ,-192.75280002743648 ,-384.59794744508713 ,-192.8419204748887  ,-770.1927174537263  ,110.73641402444696   ,256.73093915124207  ,191.80111222699708   ,-241.28642626173877   ,-432.27128809791816 ,-9.069677946082285      ,-240.94542838786288 ,          0.0 ,          0.0 ,-240.85625914155335  ,-432.70140655920403 ,-240.94542838786288 ,-914.5030932412059  ,110.73641402444696   ,304.83434791163063   ,191.80111222699708   ,-2.191677545229091e-06  ,-1.9116250839317096e-05 ,-5.300268577957041e-06  ,      0.0 ,      0.0 ,      0.0 ,-1.7859690200048825e-06 ,-1.9521956862403593e-05 ,      0.0 ,-2.1307928398695315e-05 ,1.0795580991391313e-05 ,0.5942466200452671   ,1.0                     ,-0.0021674093872370145  ,6.846819129292411e-06   ,0.0                    ,0.002167421336315474   ,0.0 ,-48.10346854891836    ,-48.10346854891836      ,        0.0 ,        0.0 , 0.0
 0.0 ,0.0 ,           0.0 ,            0.0 ,            0.0 ,            0.0 ,              0.0 ,                   0.0 , 267.0 ,11.19308 ,-23.48739 ,           0.0 ,           0.0 ,       0.0 ,-47.42366      ,-18.74502   ,-0.006820878     ,-0.002501537     ,                 0.0 ,             0.0 ,             0.0 ,                 0.0 ,                 0.0 ,        0.0 ,2.000183609051964      ,            0.0 ,            0.0 ,            0.0 ,              0.0 ,                   0.0 ,  0.0 ,0.0 , 201.00979782639047  ,1.0                ,0.0 ,-191.23622212811767 ,-379.3958701255135  ,-9.287157861142854      ,-190.47889366302772 ,          0.0 ,          0.0 ,-190.77866721291468 ,-379.8534740900784  ,-190.47889366302772 ,-761.11108544593    ,109.24901881435748   ,253.70369530555297  ,189.22486935361025   ,-236.5366607201405    ,-424.6963587267168  ,-9.287157861142854      ,-235.779382264231   ,          0.0 ,          0.0 ,-236.07910580493748  ,-425.1539126821012  ,-235.779382264231   ,-897.0124007512698  ,109.24901881435748   ,299.0041334268469    ,189.22486935361025   ,-3.659114182570208e-06  ,-1.8881581265079964e-05 ,-5.13806016568883e-06   ,      0.0 ,      0.0 ,      0.0 ,-3.2372113840556872e-06 ,-1.9303489511538893e-05 ,      0.0 ,-2.254069793306928e-05  ,1.0348745520961591e-05 ,0.7958492310221905   ,0.4970273951300985      ,-0.001098873956869094   ,2.2586912761555006e-06  ,0.0028808338500704174  ,-18.948308702279157    ,0.0 ,-26.351059906212328   ,-26.351059906212328     ,        0.0 ,        0.0 , 0.0
 0.0 ,0.0 ,           0.0 ,            0.0 ,            0.0 ,            0.0 ,              0.0 ,                   0.0 , 268.0 ,13.04366 ,-23.1566  ,           0.0 ,           0.0 ,       0.0 ,-44.22422      ,-18.73417   ,-0.003223204     ,-0.002056478     ,                 0.0 ,             0.0 ,             0.0 ,                 0.0 ,                 0.0 ,        0.0 ,1.4941741193904097     ,            0.0 ,            0.0 ,            0.0 ,              0.0 ,                   0.0 ,  0.0 ,0.0 , 202.79947179495025  ,1.0                ,0.0 ,-188.88363206369615 ,-375.45253468539914 ,-9.470896839929322      ,-188.29711779544039 ,          0.0 ,          0.0 ,-188.40320481617727 ,-375.93296193291803 ,-188.29711779544039 ,-752.6332846216168  ,108.30097831104102   ,250.87774470536996  ,187.58287606360597   ,-230.8401324857087    ,-417.4090846019047  ,-9.470896839929322      ,-230.25366771194592 ,          0.0 ,          0.0 ,-230.35975473268283  ,-417.8894623549305  ,-230.25366771194592 ,-878.5029342940524  ,108.30097831104102   ,292.83429462187553   ,187.58287606360597   ,-2.913139518114404e-06  ,-2.0098018233080583e-05 ,-5.61647340964509e-06   ,      0.0 ,      0.0 ,      0.0 ,-2.4656436490992867e-06 ,-2.054551455968332e-05  ,      0.0 ,-2.301115823680059e-05  ,1.12367589030828e-05   ,0.7973681227347704   ,0.49461997928256257     ,-0.0018168708957868095  ,-1.1849326689478547e-05 ,0.001095762795124961   ,-17.298557257752076    ,0.0 ,-24.656165762358576   ,-24.656165762358576     ,        0.0 ,        0.0 , 0.0
 0.0 ,0.0 ,           0.0 ,            0.0 ,            0.0 ,            0.0 ,              0.0 ,                   0.0 , 269.0 ,14.90115 ,-22.84266 ,           0.0 ,           0.0 ,       0.0 ,-41.15007      ,-18.72765   ,-0.0007099484    ,-0.001378859     ,                 0.0 ,             0.0 ,             0.0 ,                 0.0 ,                 0.0 ,        0.0 ,0.0022539995301560367  ,            0.0 ,            0.0 ,            0.0 ,              0.0 ,                   0.0 ,  0.0 ,0.0 , 203.35341372785373  ,1.0                ,0.0 ,-185.5279629155071  ,-369.6771205091534  ,-9.011472580871057      ,-185.53439966667855 ,          0.0 ,          0.0 ,-185.08723142781724 ,-370.1178519968432  ,-185.53439966667855 ,-740.7395333157318  ,106.69881809779682   ,246.9131610304463   ,184.80781509673469   ,-226.68510157187254   ,-410.8342592782187  ,-9.011472580871057      ,-226.69158809865115 ,          0.0 ,          0.0 ,-226.24437019688267  ,-411.27499065320865 ,-226.69158809865115 ,-864.2109490614424  ,106.69881809779682   ,288.07029979951176   ,184.80781509673469   ,-4.406893657387395e-09  ,-2.09449412640478e-08   ,-5.558891404254608e-09  ,      0.0 ,      0.0 ,      0.0 ,-3.952267587153747e-09  ,-2.139957296928027e-08  ,      0.0 ,-2.535183717543472e-08  ,1.1386912606409377e-08 ,0.7953756528010542   ,0.5025878670423938      ,-0.004377229845426468   ,-0.005959140414618293   ,0.004371584355382089   ,-24.264716186031226    ,0.0 ,-16.88647370402794    ,-16.88647370402794      ,        0.0 ,        0.0 , 0.0
 0.0 ,0.0 ,           0.0 ,            0.0 ,            0.0 ,            0.0 ,              0.0 ,                   0.0 , 270.0 ,16.76638 ,-22.55087 ,           0.0 ,           0.0 ,       0.0 ,-38.2701       ,-18.72386   ,0.001089486      ,-0.0006142416    ,                 0.0 ,             0.0 ,             0.0 ,                 0.0 ,                 0.0 ,        0.0 ,0.5049805593505154     ,            0.0 ,            0.0 ,            0.0 ,              0.0 ,                   0.0 ,  0.0 ,0.0 , 204.47509410071606  ,1.0                ,0.0 ,-184.73191838037155 ,-367.9268769679302  ,-9.026585208079076      ,-184.3059068055634  ,          0.0 ,          0.0 ,-184.287111198001   ,-368.37163378688723 ,-184.3059068055634  ,-736.9646518577728  ,106.27583245621892   ,245.65488397503137  ,184.07512498706865   ,-221.75522676220055   ,-404.9502356458515  ,-9.026585208079076      ,-221.3293151873924  ,          0.0 ,          0.0 ,-221.3104699432435   ,-405.3949925321298  ,-221.3293151873924  ,-848.0347775954444  ,106.27583245621892   ,282.6782426529527    ,184.07512498706865   ,-1.1697449887145599e-06 ,-1.0537197600816092e-05 ,-2.6866636851225957e-06 ,      0.0 ,      0.0 ,      0.0 ,-9.80912070285166e-07   ,-1.0726028003767659e-05 ,      0.0 ,-1.1706941085360369e-05 ,5.929957852474143e-06  ,0.7946435978265407   ,0.5028514887355451      ,-0.005393817015025904   ,7.524745233865431e-06   ,0.004369267474885694   ,-24.256721521580904    ,0.0 ,-12.765551728647912   ,-12.765551728647912     ,        0.0 ,        0.0 , 0.0
 0.0 ,0.0 ,           0.0 ,            0.0 ,            0.0 ,            0.0 ,              0.0 ,                   0.0 , 271.0 ,18.63693 ,-22.27216 ,           0.0 ,           0.0 ,       0.0 ,-35.50604      ,-18.72156   ,0.003097936      ,-0.0001638584    ,                 0.0 ,             0.0 ,             0.0 ,                 0.0 ,                 0.0 ,        0.0 ,1.9961592726295014     ,            0.0 ,            0.0 ,            0.0 ,              0.0 ,                   0.0 ,  0.0 ,0.0 , 204.73336567791387  ,1.0                ,0.0 ,-183.84908324233524 ,-365.9773479621207  ,-8.969491696635446      ,-183.21097521803995 ,          0.0 ,          0.0 ,-183.40729731683    ,-366.4190341261413  ,-183.21097521803995 ,-733.0373565882325  ,105.71866543388965   ,244.34580217181798  ,183.11004764037025   ,-217.3338309454321    ,-399.46214549948087 ,-8.969491696635446      ,-216.69582292113682 ,          0.0 ,          0.0 ,-216.89214478141153  ,-399.9038815907228  ,-216.69582292113682 ,-833.4917993660498  ,105.71866543388965   ,277.83059970917816   ,183.11004764037025   ,-3.645305376252308e-06  ,-1.81367329979074e-05   ,-4.171288531228799e-06  ,      0.0 ,      0.0 ,      0.0 ,-3.3511004824316825e-06 ,-1.843093490074265e-05  ,      0.0 ,-2.1782040374037307e-05 ,9.874997938162023e-06  ,0.5930098552423078   ,0.9976110852919803      ,-0.003973497256092351   ,1.0519314573956192e-05  ,2.0995350679978316e-05 ,-0.11261160569281425   ,0.0 ,-33.36823816899658    ,-33.36823816899658      ,        0.0 ,        0.0 , 0.0
 0.0 ,0.0 ,           0.0 ,            0.0 ,            0.0 ,            0.0 ,              0.0 ,                   0.0 , 272.0 ,20.51041 ,-21.99335 ,           0.0 ,           0.0 ,       0.0 ,-32.7341       ,-18.71993   ,0.005643051      ,-9.023903e-05    ,                 0.0 ,             0.0 ,             0.0 ,                 0.0 ,                 0.0 ,        0.0 ,1.4922863903187373     ,            0.0 ,            0.0 ,            0.0 ,              0.0 ,                   0.0 ,  0.0 ,0.0 , 206.20793616152946  ,1.0                ,0.0 ,-181.9578527059441  ,-362.38602523785664 ,-8.492364039868383      ,-181.57727185916536 ,          0.0 ,          0.0 ,-181.5589837911527  ,-362.7848442801783  ,-181.57727185916536 ,-725.921149414196   ,104.6257466253185    ,241.973749804732    ,181.2170405468591    ,-213.88306062908788   ,-394.3112335497706  ,-8.492364039868383      ,-213.5024795272486  ,          0.0 ,          0.0 ,-213.48424158676625  ,-394.7101020757918  ,-213.5024795272486  ,-821.6967235785767  ,104.6257466253185    ,273.8989079891156    ,181.2170405468591    ,-2.4812380535904594e-06 ,-7.703873130629716e-06  ,-1.5121811273933138e-06 ,      0.0 ,      0.0 ,      0.0 ,-2.3739776798150876e-06 ,-7.811133021231193e-06  ,      0.0 ,-1.0185114675293053e-05 ,4.0046754167290274e-06 ,0.7980187215183923   ,0.49504874322584475     ,-0.004919315706764647   ,3.0405095927605234e-06  ,0.0020999458657696974  ,-11.359034428287012    ,0.0 ,-20.563312602893994   ,-20.563312602893994     ,        0.0 ,        0.0 , 0.0
 0.0 ,0.0 ,           0.0 ,            0.0 ,            0.0 ,            0.0 ,              0.0 ,                   0.0 , 273.0 ,22.38299 ,-21.69011 ,           0.0 ,           0.0 ,       0.0 ,-29.71647      ,-18.71846   ,0.006974691      ,0.0001167941     ,                 0.0 ,             0.0 ,             0.0 ,                 0.0 ,                 0.0 ,        0.0 ,2.009058659319016      ,            0.0 ,            0.0 ,            0.0 ,              0.0 ,                   0.0 ,  0.0 ,0.0 , 206.49387657301418  ,1.0                ,0.0 ,-181.1099188310663  ,-361.0864882817252  ,-8.148934587378381      ,-180.53770190535144 ,          0.0 ,          0.0 ,-180.74164576745372 ,-361.4547119292149  ,-180.53770190535144 ,-722.7340596020201  ,104.393654075271     ,240.9113534153326   ,180.81513958255545   ,-208.84003503634227   ,-388.81665390312406 ,-8.148934587378381      ,-208.26786752675025 ,          0.0 ,          0.0 ,-208.47181138885253  ,-389.18487755061375 ,-208.26786752675025 ,-805.9245564662166  ,104.393654075271     ,268.64151903673144   ,180.81513958255545   ,-3.124896460931787e-06  ,-1.7932498566797734e-05 ,-3.6947922513741833e-06 ,      0.0 ,      0.0 ,      0.0 ,-2.896143847615785e-06  ,-1.8161249176077982e-05 ,      0.0 ,-2.105739998625712e-05  ,9.762438291592858e-06  ,0.7928992634157681   ,0.5040147762274094      ,-0.0019005768491551721  ,-2.7860052687943212e-05 ,0.001823995052201228   ,-18.896994351939004    ,0.0 ,-8.831266016311355    ,-8.831266016311355      ,        0.0 ,        0.0 , 0.0
 0.0 ,0.0 ,           0.0 ,            0.0 ,            0.0 ,            0.0 ,              0.0 ,                   0.0 , 274.0 ,24.25286 ,-21.33311 ,           0.0 ,           0.0 ,       0.0 ,-26.16244      ,-18.71687   ,0.00587057       ,0.0004554605     ,                 0.0 ,             0.0 ,             0.0 ,                 0.0 ,                 0.0 ,        0.0 ,1.9883055509758296     ,            0.0 ,            0.0 ,            0.0 ,              0.0 ,                   0.0 ,  0.0 ,0.0 , 206.43496629865572  ,0.9999999999999999 ,0.0 ,-179.43915017174874 ,-357.8558655705484  ,-7.52105688559759       ,-178.94416160340083 ,          0.0 ,          0.0 ,-179.12260509342823 ,-358.17240970879766 ,-178.94416160340083 ,-716.2391764056267  ,103.42602771264475   ,238.74639174539396  ,179.13915271879085   ,-203.71342128972458   ,-382.1301366885242  ,-7.52105688559759       ,-203.21843272137664 ,          0.0 ,          0.0 ,-203.39687715147534  ,-382.4466808267735  ,-203.21843272137664 ,-789.0619419950456  ,103.42602771264475   ,263.02066380344104   ,179.13915271879085   ,-2.9416052829352762e-06 ,-1.7483036938381958e-05 ,-3.0622080985425513e-06 ,      0.0 ,      0.0 ,      0.0 ,-2.7820282105198896e-06 ,-1.764261352604528e-05  ,      0.0 ,-2.0424643202515805e-05 ,9.526325728312568e-06  ,0.591102634022167    ,0.9999999999999999      ,-0.003934462887440664   ,-1.386122461072708e-05  ,0.0                    ,0.003934488236221043   ,0.0 ,-24.27426163614386    ,-24.27426163614386      ,        0.0 ,        0.0 , 0.0
 0.0 ,0.0 ,           0.0 ,            0.0 ,            0.0 ,            0.0 ,              0.0 ,                   0.0 , 275.0 ,26.11992 ,-20.8857  ,           0.0 ,           0.0 ,       0.0 ,-21.70666      ,-18.71503   ,0.006902131      ,0.0006974089     ,                 0.0 ,             0.0 ,             0.0 ,                 0.0 ,                 0.0 ,        0.0 ,1.5198963392957607     ,            0.0 ,            0.0 ,            0.0 ,              0.0 ,                   0.0 ,  0.0 ,0.0 , 222.98969587165277  ,1.0                ,0.0 ,-177.5097281823932  ,-354.492788391962   ,-7.170718681599561      ,-177.17912985361318 ,          0.0 ,          0.0 ,-177.2180406959638  ,-354.78447587839145 ,-177.17912985361318 ,-709.1816464279684  ,102.52947079387484   ,236.39388255939008  ,177.58623539323315   ,-197.18350821953385   ,-374.16656842910265 ,-7.170718681599561      ,-196.85293588557082 ,          0.0 ,          0.0 ,-196.89182073310445  ,-374.4582312852482  ,-196.85293588557082 ,-768.2029385290243  ,102.52947079387484   ,256.0676379662468    ,177.58623539323315   ,-2.5898741748386826e-06 ,-1.7934749843185897e-05 ,-2.980943657985161e-06  ,      0.0 ,      0.0 ,      0.0 ,-2.441667203287076e-06  ,-1.808295636306782e-05  ,      0.0 ,-2.0524622801299033e-05 ,9.844084600643176e-06  ,0.5911791014342285   ,1.0                     ,-0.0030742019434157044  ,9.580159857251796e-06   ,0.0                    ,0.003074263807573035   ,0.0 ,-19.673762774600945   ,-19.673762774600945     ,        0.0 ,        0.0 , 0.0
 0.0 ,0.0 ,           0.0 ,            0.0 ,            0.0 ,            0.0 ,              0.0 ,                   0.0 , 276.0 ,27.99641 ,-20.36961 ,           0.0 ,           0.0 ,       0.0 ,-16.56571      ,-18.71304   ,0.003733453      ,0.0005392539     ,                 0.0 ,             0.0 ,             0.0 ,                 0.0 ,                 0.0 ,        0.0 ,2.2865529492133856     ,            0.0 ,            0.0 ,            0.0 ,              0.0 ,                   0.0 ,  0.0 ,0.0 , 221.60656785296425  ,1.0                ,0.0 ,-175.87110676476578 ,-350.0507755355538  ,-6.8102296012890875     ,-175.2346267917494  ,          0.0 ,          0.0 ,-175.60326594553362 ,-350.3186163547859  ,-175.2346267917494  ,-701.156509092069   ,100.97873279831019   ,233.7188528808269   ,174.90029594898436   ,-190.79284942214878   ,-364.9725181929368  ,-6.8102296012890875     ,-190.15643377677986 ,          0.0 ,          0.0 ,-190.5250086029166   ,-365.2403485646105  ,-190.15643377677986 ,-745.921790944307   ,100.97873279831019   ,248.64058509065148   ,174.90029594898436   ,-3.4022653324007364e-06 ,-1.587065163562353e-05  ,-1.7888393235100061e-06 ,      0.0 ,      0.0 ,      0.0 ,-3.335653726726558e-06  ,-1.5937264648749215e-05 ,      0.0 ,-1.9272918288983717e-05 ,8.446236023044059e-06  ,0.5888102856323063   ,1.0                     ,-0.004425981721475498   ,3.15363031844092e-05    ,0.0                    ,0.004426102757516731   ,0.0 ,-14.921751745368484   ,-14.921751745368484     ,        0.0 ,        0.0 , 0.0
 0.0 ,0.0 ,           0.0 ,            0.0 ,            0.0 ,            0.0 ,              0.0 ,                   0.0 , 277.0 ,29.9463  ,-20.02611 ,           0.0 ,           0.0 ,       0.0 ,-13.14993      ,-18.71112   ,0.005191921      ,0.0001724508     ,                 0.0 ,             0.0 ,             0.0 ,                 0.0 ,                 0.0 ,        0.0 ,1.7732243568420083     ,            0.0 ,            0.0 ,            0.0 ,              0.0 ,                   0.0 ,  0.0 ,0.0 , 214.93789905316692  ,1.0                ,0.0 ,-174.66256528984775 ,-347.2286237536014  ,-6.294961481405934      ,-173.80485376659576 ,          0.0 ,          0.0 ,-174.43167648230053 ,-347.4595125611486  ,-173.80485376659576 ,-695.6960428100449  ,100.07964125312483   ,231.89866416847195  ,173.34304580855502   ,-185.94145389755175   ,-358.50748473424073 ,-6.294961481405934      ,-185.0837672219853  ,          0.0 ,          0.0 ,-185.71056509000456  ,-358.73837354178795 ,-185.0837672219853  ,-729.5327058537778  ,100.07964125312483   ,243.177552776176     ,173.34304580855502   ,-2.5506353386849657e-06 ,-1.5743992597443385e-05 ,-2.1726244091501507e-06 ,      0.0 ,      0.0 ,      0.0 ,-2.458964853490355e-06  ,-1.583566410433921e-05  ,      0.0 ,-1.8294628825955026e-05 ,8.554825457830032e-06  ,0.7025629069372079   ,0.7226400719645522      ,-0.0024621112652031623  ,1.3931417285998454e-05  ,0.0010892826676198563  ,0.04755513468009524    ,0.0 ,-11.323953071204002   ,-11.323953071204002     ,        0.0 ,        0.0 , 0.0
 0.0 ,0.0 ,           0.0 ,            0.0 ,            0.0 ,            0.0 ,              0.0 ,                   0.0 , 278.0 ,31.91869 ,-19.74971 ,           0.0 ,           0.0 ,       0.0 ,-10.40802      ,-18.70891   ,0.006606132      ,0.0001356901     ,                 0.0 ,             0.0 ,             0.0 ,                 0.0 ,                 0.0 ,        0.0 ,0.504635232011875      ,            0.0 ,            0.0 ,            0.0 ,              0.0 ,                   0.0 ,  0.0 ,0.0 , 212.7698199074521   ,1.0                ,0.0 ,-173.18057157942306 ,-343.8990345421669  ,-5.654335674220375      ,-172.03503431601598 ,          0.0 ,          0.0 ,-172.99317225383166 ,-344.0864338677583  ,-172.03503431601598 ,-689.114640437606   , 99.05953608967465   ,229.70486348263123  ,171.57618337707552   ,-182.48856550549095   ,-353.2070279944237  ,-5.654335674220375      ,-181.34302824208385 ,          0.0 ,          0.0 ,-182.30116617989952  ,-353.39442732001515 ,-181.34302824208385 ,-717.0386217419984  , 99.05953608967465   ,239.01285740869906   ,171.57618337707552   ,-8.414162529722126e-07  ,-9.357711139700866e-06  ,-1.4067248418331658e-06 ,      0.0 ,      0.0 ,      0.0 ,-7.83692659483461e-07   ,-9.415434737927727e-06  ,      0.0 ,-1.0199130325722275e-05 ,5.224712267981199e-06  ,0.7901687156121654   ,0.494617794451635       ,-0.0014133805737882763  ,2.7972334767630504e-06  ,0.0006261794371331152  ,0.4313114769468605     ,0.0 ,-9.732003777258294    ,-9.732003777258294      ,        0.0 ,        0.0 , 0.0
 0.0 ,0.0 ,           0.0 ,            0.0 ,            0.0 ,            0.0 ,              0.0 ,                   0.0 , 279.0 ,33.89617 ,-19.48166 ,           0.0 ,           0.0 ,       0.0 ,-7.752994      ,-18.70636   ,0.008067754      ,0.0002216954     ,                 0.0 ,             0.0 ,             0.0 ,                 0.0 ,                 0.0 ,        0.0 ,3.4927798756348345     ,            0.0 ,            0.0 ,            0.0 ,              0.0 ,                   0.0 ,  0.0 ,0.0 , 213.37414446401655  ,1.0                ,0.0 ,-172.56236320151817 ,-341.4390713608977  ,-4.977664844917051      ,-170.93438696979277 ,          0.0 ,          0.0 ,-172.41539645158775 ,-341.5860381108281  ,-170.93438696979277 ,-684.9357717670638  , 98.10269210647459   ,228.31189064314987  ,169.9188940972043    ,-179.35188429810842   ,-348.2285924574879  ,-4.977664844917051      ,-177.723908066383   ,          0.0 ,          0.0 ,-179.20491754817797  ,-348.3755592074183  ,-177.723908066383   ,-705.3043848219793  , 98.10269210647459   ,235.10146150488487   ,169.9188940972043    ,-2.650570258003146e-06  ,-1.2015939318279624e-05 ,-1.1945012717160586e-06 ,      0.0 ,      0.0 ,      0.0 ,-2.6115719775970113e-06 ,-1.2054938099410452e-05 ,      0.0 ,-1.4666512067613255e-05 ,6.454610697827013e-06  ,0.8749419583267837   ,-0.0024092935274789085  ,-0.00011082297208241896 ,0.0                     ,0.0024123794146129057  ,-6.238632675284769     ,0.0 ,0.0                   ,0.0                     ,        0.0 ,        0.0 , 0.0
 0.0 ,0.0 ,           0.0 ,            0.0 ,            0.0 ,            0.0 ,              0.0 ,                   0.0 , 280.0 ,35.88194 ,-19.18254 ,           0.0 ,           0.0 ,       0.0 ,-4.789789      ,-18.70356   ,0.008059559      ,7.327931e-05     ,                 0.0 ,             0.0 ,             0.0 ,                 0.0 ,                 0.0 ,        0.0 ,2.235797991346947      ,            0.0 ,            0.0 ,            0.0 ,              0.0 ,                   0.0 ,  0.0 ,0.0 , 212.0391268025563   ,1.0                ,0.0 ,-171.46473028083474 ,-339.1506844406491  ,-4.2445897624704605     ,-169.75676652410232 ,          0.0 ,          0.0 ,-171.35535855809286 ,-339.2600561633909  ,-169.75676652410232 ,-680.3721812455861  , 97.40584197431583   ,226.79071951070435  ,168.71187816384867   ,-175.3543267250244    ,-343.04025570021383 ,-4.2445897624704605     ,-173.64638901924292 ,          0.0 ,          0.0 ,-175.24492981765758  ,-343.1496274229557  ,-173.64638901924292 ,-692.0409462598562  , 97.40584197431583   ,230.68029077026904   ,168.71187816384867   ,-2.3731198517685226e-06 ,-1.1680556795250588e-05 ,-6.963082456327732e-07  ,      0.0 ,      0.0 ,      0.0 ,-2.3598442975893684e-06 ,-1.1693833742915327e-05 ,      0.0 ,-1.4053675630638803e-05 ,6.307708390246745e-06  ,0.6677699336752994   ,0.5112335292645537      ,-0.0015502320027376377  ,-7.72290415732621e-06   ,0.0011244052142298263  ,2.1498711710585803     ,0.0 ,-5.501500799482221    ,-5.501500799482221      ,        0.0 ,        0.0 , 0.0
 0.0 ,0.0 ,           0.0 ,            0.0 ,            0.0 ,            0.0 ,              0.0 ,                   0.0 , 281.0 ,37.88238 ,-18.80515 ,           0.0 ,           0.0 ,       0.0 ,-1.044854      ,-18.70066   ,0.009244063      ,-0.0004545955    ,                 0.0 ,             0.0 ,             0.0 ,                 0.0 ,                 0.0 ,        0.0 ,1.2635573975786807     ,            0.0 ,            0.0 ,            0.0 ,              0.0 ,                   0.0 ,  0.0 ,0.0 , 212.01551053914366  ,1.0                ,0.0 ,-169.41018251664622 ,-335.11098503170456 ,-3.677110280998251      ,-167.62188335480914 ,          0.0 ,          0.0 ,-169.32671800482123 ,-335.1944495435296  ,-167.62188335480914 ,-672.14305090316    , 96.26108037453344   ,224.04767535921914  ,166.72910363880675   ,-171.06162847630856   ,-336.76235581686944 ,-3.677110280998251      ,-169.27332931447148 ,          0.0 ,          0.0 ,-170.978088789986    ,-336.8458436239596  ,-169.27332931447148 ,-677.097261728417   , 96.26108037453344   ,225.69906943964915   ,166.72910363880675   ,-1.2689193320346382e-06 ,-1.078505078028223e-05  ,-6.14770933502482e-07   ,      0.0 ,      0.0 ,      0.0 ,-1.258965961084439e-06  ,-1.079500787539602e-05  ,      0.0 ,-1.2053969945538034e-05 ,5.984476711142112e-06  ,0.5824506398687036   ,0.5182021547810077      ,-0.0011826156454162037  ,-7.460378871507335e-06  ,0.0005915007303754768  ,3.855817219787852      ,0.0 ,-3.545190168419232    ,-3.545190168419232      ,        0.0 ,        0.0 , 0.0
 0.0 ,0.0 ,           0.0 ,            0.0 ,            0.0 ,            0.0 ,              0.0 ,                   0.0 , 282.0 ,39.90118 ,-18.32259 ,           0.0 ,           0.0 ,       0.0 ,3.748278       ,-18.69742   ,0.006433408      ,0.001422854      ,                 0.0 ,             0.0 ,             0.0 ,                 0.0 ,                 0.0 ,        0.0 ,0.20052145748479022    ,            0.0 ,            0.0 ,            0.0 ,              0.0 ,                   0.0 ,  0.0 ,0.0 , 222.68764725066848  ,1.0                ,0.0 ,-166.49796007002385 ,-328.49719318912435 ,-2.998128582974034      ,-164.29217164285174 ,          0.0 ,          0.0 ,-166.4382943230096  ,-328.55685893613867 ,-164.29217164285174 ,-659.2873249019999  , 94.22593925129306   ,219.76243305025457  ,163.20412610781594   ,-166.2438110854567    ,-328.24296995579357 ,-2.998128582974034      ,-164.0380226582846  ,          0.0 ,          0.0 ,-166.18407108967875  ,-328.30268989942573 ,-164.0380226582846  ,-658.5247836473891  , 94.22593925129306   ,219.50826401354163   ,163.20412610781594   ,-1.8467039668778353e-07 ,-3.5789972078444043e-06 ,-2.1551765520424776e-07 ,      0.0 ,      0.0 ,      0.0 ,-1.8125284933143303e-07 ,-3.58241609869452e-06   ,      0.0 ,-3.7636674441150217e-06 ,2.0180218803374555e-06 ,0.4800513525205804   ,0.45798996110455875     ,-0.0008835943818799231  ,-4.998666036517345e-05  ,4.4382271629720394e-05 ,6.424246256132105      ,0.0 ,-2.242573959196572    ,-2.242573959196572      ,        0.0 ,        0.0 , 0.0
 0.0 ,0.0 ,           0.0 ,            0.0 ,            0.0 ,            0.0 ,              0.0 ,                   0.0 , 283.0 ,41.96719 ,-18.10282 ,           0.0 ,           0.0 ,       0.0 ,5.912383       ,-18.69406   ,0.0103369        ,0.001594598      ,                 0.0 ,             0.0 ,             0.0 ,                 0.0 ,                 0.0 ,        0.0 ,0.0                    ,            0.0 ,            0.0 ,            0.0 ,              0.0 ,                   0.0 ,  0.0 ,0.0 , 200.0938914081704   ,1.0                ,0.0 ,-164.21598675907944 ,-323.39337180144975 ,-2.226947620431949      ,-161.73157436972753 ,          0.0 ,          0.0 ,-164.1794812596421  ,-323.42987730088703 ,-161.73157436972753 ,-649.3409329302566  , 92.6608540624509    ,216.44695545696652  ,160.49328433691255   ,-164.87239008985634   ,-324.0497582296564  ,-2.226947620431949      ,-162.3879777005044  ,          0.0 ,          0.0 ,-164.83586768784875  ,-324.08626409359135 ,-162.3879777005044  ,-651.3101260200172  , 92.6608540624509    ,217.10335878774342   ,160.49328433691255   ,0.0                     ,0.0                     ,0.0                     ,      0.0 ,      0.0 ,      0.0 ,0.0                     ,0.0                     ,      0.0 ,0.0                     ,0.0                    ,0.4786426250237516   ,0.6655792829211709      ,-0.0011254355040893043  ,-0.00012174764713594262 ,1.4452659398807077e-05 ,8.168249685713569      ,0.0 ,-2.254642978649168    ,-2.254642978649168      ,        0.0 ,        0.0 , 0.0
 0.0 ,0.0 ,           0.0 ,            0.0 ,            0.0 ,            0.0 ,              0.0 ,                   0.0 , 284.0 ,43.99117 ,-17.92271 ,           0.0 ,           0.0 ,       0.0 ,7.679996       ,-18.69071   ,0.008889061      ,0.0005311715     ,                 0.0 ,             0.0 ,             0.0 ,                 0.0 ,                 0.0 ,        0.0 ,0.7275457548430033     ,            0.0 ,            0.0 ,            0.0 ,              0.0 ,                   0.0 ,  0.0 ,0.0 , 191.06094787035389  ,0.9999999999999999 ,0.0 ,-162.73658295191802 ,-320.3338599932792  ,-1.8822204647161325     ,-160.1778293570442  ,          0.0 ,          0.0 ,-162.7075701163113  ,-320.3628728288859  ,-160.1778293570442  ,-643.2482723022413  , 91.76678706711455   ,214.41609774724003  ,158.94472499096136   ,-162.05769216094757   ,-319.6549692023088  ,-1.8822204647161325     ,-159.49886581149826 ,          0.0 ,          0.0 ,-162.02867932534087  ,-319.6839820379155  ,-159.49886581149826 ,-641.2115271747547  , 91.76678706711455   ,213.73715877136647   ,158.94472499096136   ,-6.413356316053478e-07  ,-5.356180445826106e-06  ,-8.604279693694496e-07  ,      0.0 ,      0.0 ,      0.0 ,1.036335910605873e-07   ,-6.101152587973668e-06  ,      0.0 ,-5.997517550411545e-06  ,3.5699344671024267e-06 ,0.6664119493866181   ,0.27139748398454183     ,-0.0004258917574537512  ,-4.983621346171268e-05  ,0.0010573056738993325  ,10.157459411858348     ,0.0 ,-0.922916141766978    ,-0.922916141766978      ,        0.0 ,        0.0 , 0.0
 0.0 ,0.0 ,           0.0 ,            0.0 ,            0.0 ,            0.0 ,              0.0 ,                   0.0 , 285.0 ,45.98009 ,-17.75138 ,           0.0 ,           0.0 ,       0.0 ,9.35833        ,-18.68721   ,-0.007595437     ,0.001925746      ,                 0.0 ,             0.0 ,             0.0 ,                 0.0 ,                 0.0 ,        0.0 ,2.4601354322159743     ,            0.0 ,            0.0 ,            0.0 ,              0.0 ,                   0.0 ,  0.0 ,0.0 , 191.64978300474104  ,1.0                ,0.0 ,-161.30130420066305 ,-316.3338459126719  ,-1.7456588008957532     ,-158.24599671779572 ,          0.0 ,          0.0 ,-161.27820806819318 ,-316.3569420451418  ,-158.24599671779572 ,-635.8811468311306  , 90.42961968708683   ,211.9603749611821   ,156.62866833579898   ,-158.74196420403604   ,-313.77452998200374 ,-1.7456588008957532     ,-155.68662999757203 ,          0.0 ,          0.0 ,-158.718892137525    ,-313.7976020485148  ,-155.68662999757203 ,-628.2031241836119  , 90.42961968708683   ,209.4010569121395    ,156.62866833579898   ,-1.184521445219795e-06  ,-7.63755664315062e-06   ,-8.786903659358047e-07  ,      0.0 ,      0.0 ,      0.0 ,-4.5956796299137276e-07 ,-8.362511498874345e-06  ,      0.0 ,-8.822079345829782e-06  ,4.7261692909530924e-06 ,0.834070560795197    ,0.028799412380709686    ,8.29135687385116e-06    ,-1.4030436587773252e-08 ,0.0014687103923261928  ,1.4853160875886737     ,0.0 ,9.925060174516151     ,1.2209172799123564      ,        0.0 ,        0.0 , 0.0
 0.0 ,0.0 ,           0.0 ,            0.0 ,            0.0 ,            0.0 ,              0.0 ,                   0.0 , 286.0 ,47.94121 ,-17.58894 ,           0.0 ,           0.0 ,       0.0 ,10.94637       ,-18.68357   ,-0.02030269      ,0.00196805       ,                 0.0 ,             0.0 ,             0.0 ,                 0.0 ,                 0.0 ,        0.0 ,3.970921498650128      ,            0.0 ,            0.0 ,            0.0 ,              0.0 ,                   0.0 ,  0.0 ,0.0 , 220.58676459743788  ,1.0                ,0.0 ,-160.89579824420952 ,-312.1266808275475  ,-1.0436559455911576     ,-156.40059706712367 ,          0.0 ,          0.0 ,-160.88738208752838 ,-312.1350962572662  ,-156.40059706712367 ,-629.4230754119181  , 88.65529415770906   ,209.80769189700743  ,153.55546203539797   ,-157.29246994792481   ,-308.5234023917107  ,-1.0436559455911576     ,-152.7972687708389  ,          0.0 ,          0.0 ,-157.28410437865406  ,-308.53176796098137 ,-152.7972687708389  ,-618.613141837437   , 88.65529415770906   ,206.20441346117062   ,153.55546203539797   ,-1.5552415854404367e-06 ,-4.706722621489375e-06  ,-6.650058782480774e-07  ,      0.0 ,      0.0 ,      0.0 ,-4.3294266757682896e-07 ,-5.8290211934648565e-06 ,      0.0 ,-6.261964409058754e-06  ,3.263771294452436e-06  ,0.7288429066343911   ,0.10548034970916374     ,-2.1972454988640682e-05 ,2.0754526981502256e-07  ,0.0009044770015158713  ,1.3012542681757948     ,0.0 ,11.591898056470791    ,2.449758004905623       ,        0.0 ,        0.0 , 0.0
 0.0 ,0.0 ,           0.0 ,            0.0 ,            0.0 ,            0.0 ,              0.0 ,                   0.0 , 287.0 ,49.8822  ,-17.44495 ,           0.0 ,           0.0 ,       0.0 ,12.34941       ,-18.6799    ,0.002810958      ,0.0009732847     ,                 0.0 ,             0.0 ,             0.0 ,                 0.0 ,                 0.0 ,        0.0 ,2.0059179578462447     ,            0.0 ,            0.0 ,            0.0 ,              0.0 ,                   0.0 ,  0.0 ,0.0 , 221.23395937778204  ,1.0                ,0.0 ,-159.63109638486102 ,-307.96531964422053 ,0.7143723899582386      ,-154.3949671867468  ,          0.0 ,          0.0 ,-159.61762895697217 ,-307.97878707210936 ,-154.3949671867468  ,-621.9913832158283  , 87.20729263050212   ,207.3304944052761   ,151.04748706438738   ,-155.69507864009347   ,-304.029252047402   ,0.7143723899582386      ,-150.45889958992825 ,          0.0 ,          0.0 ,-155.68161121220464  ,-304.0427693273419  ,-150.45889958992825 ,-610.1832801294747  , 87.20729263050212   ,203.39442680845755   ,151.04748706438738   ,-9.57212286746689e-07   ,1.519505972621711e-07   ,-3.193287719369643e-07  ,      0.0 ,      0.0 ,      0.0 ,1.7447705738513755e-07  ,-9.797383959340342e-07  ,      0.0 ,-8.052613887168499e-07  ,6.221660592971053e-07  ,0.5774957504886725   ,0.5071653589626386      ,-0.0005028747727201926  ,-1.7968854857619088e-05 ,4.206141086218156e-09  ,0.005299614934014879   ,0.0 ,13.325084991527188    ,3.935062033743987       ,        0.0 ,        0.0 , 0.0
 0.0 ,0.0 ,           0.0 ,            0.0 ,            0.0 ,            0.0 ,              0.0 ,                   0.0 , 288.0 ,51.80833 ,-17.34403 ,           0.0 ,           0.0 ,       0.0 ,13.32198       ,-18.67623   ,0.03529709       ,0.002038421      ,                 0.0 ,             0.0 ,             0.0 ,                 0.0 ,                 0.0 ,        0.0 ,3.4872933169057836     ,            0.0 ,            0.0 ,            0.0 ,              0.0 ,                   0.0 ,  0.0 ,0.0 , 222.69989581800172  ,1.0                ,0.0 ,-158.71513561471662 ,-307.8713519174901  ,2.253954371931963       ,-154.30845926100463 ,          0.0 ,          0.0 ,-158.673583527112   ,-307.9129040050947  ,-154.30845926100463 ,-620.8949467932114  , 87.46115545088014   ,206.96501545515935  ,151.4871446144912    ,-154.55593929693188   ,-303.7121555997053  ,2.253954371931963       ,-150.14926337095318 ,          0.0 ,          0.0 ,-154.51438720932725  ,-303.7537076873099  ,-150.14926337095318 ,-608.4174078273254  , 87.46115545088014   ,202.80581913737458   ,151.4871446144912    ,-1.5905331349218331e-06 ,-2.214952289004385e-06  ,5.484376548631544e-07   ,      0.0 ,      0.0 ,      0.0 ,-3.113876879745817e-07  ,-3.4940976359265737e-06 ,      0.0 ,-3.8054854239262182e-06 ,1.961111539202049e-06  ,0.3940255420053424   ,0.36329194015899224     ,-0.0010776437342824286  ,-2.194010342352221e-05  ,1.0515734913101708e-05 ,11.992517615390035     ,0.0 ,2.410038040451098     ,1.7112184300771032      ,        0.0 ,        0.0 , 0.0
 0.0 ,0.0 ,           0.0 ,            0.0 ,            0.0 ,            0.0 ,              0.0 ,                   0.0 , 289.0 ,53.72429 ,-17.26175 ,           0.0 ,           0.0 ,       0.0 ,14.10804       ,-18.67255   ,0.02967541       ,0.002895621      ,                 0.0 ,             0.0 ,             0.0 ,                 0.0 ,                 0.0 ,        0.0 ,0.9960205770557697     ,            0.0 ,            0.0 ,            0.0 ,              0.0 ,                   0.0 ,  0.0 ,0.0 , 223.78368343935344  ,0.9999999999999999 ,0.0 ,-157.82435480192277 ,-309.7767794606706  ,2.5742632114102184      ,-154.88950217236436 ,          0.0 ,          0.0 ,-157.78065609944179 ,-309.82042806880463 ,-154.88950217236436 ,-622.4906364349578  , 88.63295756470464   ,207.49687881165258  ,153.51680438390446   ,-153.41814117021153   ,-305.37061475003384 ,2.5742632114102184      ,-150.48338795401682 ,          0.0 ,          0.0 ,-153.37449197544123  ,-305.4142639448041  ,-150.48338795401682 ,-609.2721933819728  , 88.63295756470464   ,203.09071468765205   ,153.51680438390446   ,-4.969145007245949e-07  ,-3.1986747925440095e-06 ,5.813240277795962e-07   ,      0.0 ,      0.0 ,      0.0 ,-4.532372100319481e-07  ,-3.2423518339381938e-06 ,      0.0 ,-3.6955893922840257e-06 ,1.756508559136404e-06  ,0.5974168494703044   ,0.10665465601354945     ,-1.3076435369887489e-05 ,-9.73235040031617e-08   ,0.0004272963974223862  ,3.119140591126974      ,0.0 ,11.635415768072958    ,2.4671792629774627      ,        0.0 ,        0.0 , 0.0
 0.0 ,0.0 ,           0.0 ,            0.0 ,            0.0 ,            0.0 ,              0.0 ,                   0.0 , 290.0 ,55.63503 ,-17.18712 ,           0.0 ,           0.0 ,       0.0 ,14.81728       ,-18.66885   ,0.01112287       ,0.001927083      ,                 0.0 ,             0.0 ,             0.0 ,                 0.0 ,                 0.0 ,        0.0 ,1.0065747982565947     ,            0.0 ,            0.0 ,            0.0 ,              0.0 ,                   0.0 ,  0.0 ,0.0 , 224.7484842142262   ,1.0                ,0.0 ,-157.27340448255774 ,-310.9247899205521  ,2.8317940712503855      ,-155.2531180448902  ,          0.0 ,          0.0 ,-157.22059109339804 ,-310.97755415510846 ,-155.2531180448902  ,-623.451312448      , 89.34833870447615   ,207.8170874200277   ,154.7558751773385    ,-152.72348916351277   ,-306.374824789424   ,2.8317940712503855      ,-150.7032027258452  ,          0.0 ,          0.0 ,-152.67067511687324  ,-306.42768836650055 ,-150.7032027258452  ,-609.8015166787819  , 89.34833870447615   ,203.26717210098272   ,154.7558751773385    ,-9.036156417936043e-07  ,-3.4839552414161996e-06 ,2.599182069612705e-07   ,      0.0 ,      0.0 ,      0.0 ,2.0693801901853113e-07  ,-4.594508452979544e-06  ,      0.0 ,-4.3875706850880554e-06 ,2.7448003887294035e-06 ,0.561834607916835    ,0.0950908748923935      ,-1.0416332597193095e-05 ,2.0834992938189076e-08  ,0.00017450935069775295 ,3.781707264936538      ,0.0 ,13.128523498430846    ,2.4781152463140814      ,        0.0 ,        0.0 , 0.0
 0.0 ,0.0 ,           0.0 ,            0.0 ,            0.0 ,            0.0 ,              0.0 ,                   0.0 , 291.0 ,57.54559 ,-17.11537 ,           0.0 ,           0.0 ,       0.0 ,15.49745       ,-18.66512   ,0.002994975      ,0.002534476      ,                 0.0 ,             0.0 ,             0.0 ,                 0.0 ,                 0.0 ,        0.0 ,1.023430060943012      ,            0.0 ,            0.0 ,            0.0 ,              0.0 ,                   0.0 ,  0.0 ,0.0 , 225.70739031032568  ,1.0                ,0.0 ,-156.7853787372005  ,-310.72458752033384 ,2.9404413830638383      ,-155.08902689119702 ,          0.0 ,          0.0 ,-156.72908847362606 ,-310.7809274986158  ,-155.08902689119702 ,-622.5989924203335  , 89.42138550014693   ,207.53296414011118  ,154.88239022731466   ,-152.39996733985507   ,-306.3392264082809  ,2.9404413830638383      ,-150.70361549385157 ,          0.0 ,          0.0 ,-152.3436280899709   ,-306.39551610127035 ,-150.70361549385157 ,-609.4428092419876  , 89.42138550014693   ,203.14760302805826   ,154.88239022731466   ,-8.929058058991806e-07  ,4.1536370895428594e-07  ,3.8830778887632116e-07  ,      0.0 ,      0.0 ,      0.0 ,4.4366225952880085e-07  ,-9.212041583432634e-07  ,      0.0 ,-4.775420998584859e-07  ,6.962235234115314e-07  ,0.5816253957762239   ,0.41115809593744257     ,-0.00026382468932850136 ,-7.648616401263326e-06  ,0.0                    ,0.00026393926095379414 ,0.0 ,16.13236304402415     ,4.3854020086220675      ,        0.0 ,        0.0 , 0.0
 0.0 ,0.0 ,           0.0 ,            0.0 ,            0.0 ,            0.0 ,              0.0 ,                   0.0 , 292.0 ,59.4612  ,-17.04522 ,           0.0 ,           0.0 ,       0.0 ,16.16146       ,-18.66136   ,-0.002149779     ,0.002483644      ,                 0.0 ,             0.0 ,             0.0 ,                 0.0 ,                 0.0 ,        0.0 ,3.0215283961756825     ,            0.0 ,            0.0 ,            0.0 ,              0.0 ,                   0.0 ,  0.0 ,0.0 , 226.65304853989375  ,0.9999999999999999 ,0.0 ,-156.1278672263782  ,-309.6792645247603  ,3.0092258711537854      ,-154.59155633685512 ,          0.0 ,          0.0 ,-156.06868802392418 ,-309.73844372721436 ,-154.59155633685512 ,-620.3986376788953  , 89.1529877504132    ,206.79951255963178  ,154.417492622582     ,-151.61018857471464   ,-305.1616356148735  ,3.0092258711537854      ,-150.07387768519155 ,          0.0 ,          0.0 ,-151.5510597813589   ,-305.2207399464392  ,-150.07387768519155 ,-606.8457018747798  , 89.1529877504132    ,202.2819087788566    ,154.417492622582     ,-1.2347840880434006e-06 ,-1.126882875190162e-06  ,3.335096406858288e-07   ,      0.0 ,      0.0 ,      0.0 ,1.8617596000384953e-07  ,-2.547842898259176e-06  ,      0.0 ,-2.361667114611733e-06  ,1.5640696852470668e-06 ,0.5569275344833562   ,0.24601523250389806     ,-0.00013225209484848307 ,-3.7690829362789593e-06 ,7.186214763029456e-05  ,2.2390811056072866     ,0.0 ,15.355677661484828    ,3.4219311588639787      ,        0.0 ,        0.0 , 0.0
 0.0 ,0.0 ,           0.0 ,            0.0 ,            0.0 ,            0.0 ,              0.0 ,                   0.0 , 293.0 ,61.3891  ,-16.97413 ,           0.0 ,           0.0 ,       0.0 ,16.8345        ,-18.65758   ,-0.008448897     ,0.002522312      ,                 0.0 ,             0.0 ,             0.0 ,                 0.0 ,                 0.0 ,        0.0 ,4.0                    ,            0.0 ,            0.0 ,            0.0 ,              0.0 ,                   0.0 ,  0.0 ,0.0 , 227.6202961064987   ,1.0                ,0.0 ,-155.24165580285876 ,-307.92703549683483 ,3.116973305333823       ,-153.7743515578975  ,          0.0 ,          0.0 ,-155.17789122250366 ,-307.99080007718993 ,-153.7743515578975  ,-616.9430180320087  , 88.63701919518475   ,205.64763934400287  ,153.5238248133939    ,-150.59731218950526   ,-303.28264153464613 ,3.116973305333823       ,-149.12998238219694 ,          0.0 ,          0.0 ,-150.53357243473255  ,-303.3463812894188  ,-149.12998238219694 ,-603.0099361063483  , 88.63701919518475   ,201.00332055623176   ,153.5238248133939    ,-1.46393186819097e-06   ,-2.6507316688597833e-06 ,5.119571817514415e-07   ,      0.0 ,      0.0 ,      0.0 ,-5.9506093839400066e-08 ,-4.055157242513683e-06  ,      0.0 ,-4.114663537128942e-06  ,2.3693636034232365e-06 ,0.532493294034901    ,0.08733528073440658     ,-8.457582560455917e-06  ,-2.9366213691256837e-08 ,0.00014187648168462516 ,4.420335270363691      ,0.0 ,14.303719432247341    ,2.4811061883582033      ,        0.0 ,        0.0 , 0.0
 0.0 ,0.0 ,           0.0 ,            0.0 ,            0.0 ,            0.0 ,              0.0 ,                   0.0 , 294.0 ,63.33667 ,-16.90322 ,           0.0 ,           0.0 ,       0.0 ,17.50516       ,-18.65374   ,-0.01887071      ,0.002031814      ,                 0.0 ,             0.0 ,             0.0 ,                 0.0 ,                 0.0 ,        0.0 ,3.4794733236583175     ,            0.0 ,            0.0 ,            0.0 ,              0.0 ,                   0.0 ,  0.0 ,0.0 , 228.5633471917204   ,1.0                ,0.0 ,-153.9101422196788  ,-304.76241870854744 ,3.227490382264528       ,-152.40229805839476 ,          0.0 ,          0.0 ,-153.8405762457299  ,-304.83198348168816 ,-152.40229805839476 ,-611.0748589866209  , 87.5955320629532    ,203.69158712941248  ,151.71991095765372   ,-149.37934133070866   ,-300.2315698722449  ,3.227490382264528       ,-147.87144922209228 ,          0.0 ,          0.0 ,-149.30977655756794  ,-300.3011346453856  ,-147.87144922209228 ,-597.482360425046   , 87.5955320629532    ,199.16078624044235   ,151.71991095765372   ,-1.1518820952256283e-06 ,-9.247571311086551e-07  ,1.4721548594835814e-06  ,      0.0 ,      0.0 ,      0.0 ,4.517080285295785e-07   ,-2.528347114624289e-06  ,      0.0 ,-2.076639376488245e-06  ,1.6174381129438634e-06 ,0.5642878526593584   ,0.0823896442965938      ,-8.244131485286564e-06  ,-3.4561114988745196e-08 ,0.0005119216155551945  ,3.9836083532749864     ,0.0 ,14.359975930862346    ,2.422195826874254       ,        0.0 ,        0.0 , 0.0
 0.0 ,0.0 ,           0.0 ,            0.0 ,            0.0 ,            0.0 ,              0.0 ,                   0.0 , 295.0 ,65.314   ,-16.8312  ,           0.0 ,           0.0 ,       0.0 ,18.18633       ,-18.64983   ,-0.03715145      ,0.001615288      ,                 0.0 ,             0.0 ,             0.0 ,                 0.0 ,                 0.0 ,        0.0 ,1.9675426650517718     ,            0.0 ,            0.0 ,            0.0 ,              0.0 ,                   0.0 ,  0.0 ,0.0 , 229.63309647921378  ,1.0                ,0.0 ,-153.0575791159287  ,-300.50858375674244 ,3.3297064875675972      ,-150.61707648027567 ,          0.0 ,          0.0 ,-152.98223891703088 ,-300.5838751880843  ,-150.61707648027567 ,-604.1831897433693  , 85.91020355615352   ,201.39442937350088  ,148.8008249883365    ,-148.40150165609123   ,-295.85255506446083 ,3.3297064875675972      ,-145.96104778799412 ,          0.0 ,          0.0 ,-148.32621022474933  ,-295.9278464958027  ,-145.96104778799412 ,-590.2151045085462  , 85.91020355615352   ,196.7383519136634    ,148.8008249883365    ,-1.2280586235297438e-06 ,-1.7372111923000386e-06 ,1.2783797870099056e-06  ,      0.0 ,      0.0 ,      0.0 ,-2.1849858560949437e-08 ,-2.943420349093323e-06  ,      0.0 ,-2.9652702118643796e-06 ,1.7452284309951454e-06 ,0.32420049348837576  ,-0.00021771537767102504 ,-3.3844721302252977e-07 ,0.0                     ,0.0002177159083291753  ,19.26953603050799      ,0.0 ,0.0                   ,0.0                     ,        0.0 ,        0.0 , 0.0
 0.0 ,0.0 ,           0.0 ,            0.0 ,            0.0 ,            0.0 ,              0.0 ,                   0.0 , 296.0 ,67.32614 ,-16.76461 ,           0.0 ,           0.0 ,       0.0 ,18.81209       ,-18.64582   ,-0.05983223      ,-5.685617e-05    ,                 0.0 ,             0.0 ,             0.0 ,                 0.0 ,                 0.0 ,        0.0 ,0.06519433416561815    ,            0.0 ,            0.0 ,            0.0 ,              0.0 ,                   0.0 ,  0.0 ,0.0 , 230.98056179939064  ,1.0                ,0.0 ,-153.12096940090353 ,-295.20822053743376 ,3.831082986760137       ,-148.65342188930066 ,          0.0 ,          0.0 ,-153.01336295217237 ,-295.31582698616484 ,-148.65342188930066 ,-596.982611827638   , 83.44618645682438   ,198.99422113130925  ,144.5330104752009    ,-148.51467000848686   ,-290.601921145017   ,3.831082986760137       ,-144.0471246700285  ,          0.0 ,          0.0 ,-148.40706355975576  ,-290.70952759374825 ,-144.0471246700285  ,-583.1637158235325  , 83.44618645682438   ,194.38792173889263   ,144.5330104752009    ,-1.1241963209695087e-08 ,-1.0006621849324452e-08 ,5.6145012880314805e-08  ,      0.0 ,      0.0 ,      0.0 ,1.7455007160267688e-08  ,-3.87035943924317e-08   ,      0.0 ,-2.1248585059019536e-08 ,2.874146550303081e-08  ,0.3787103503371567   ,0.2594815918872465      ,-0.00013717170717100202 ,-2.4167364043865956e-06 ,4.677726276430613e-06  ,14.084088583481314     ,0.0 ,4.720393095046879     ,2.219616262475458       ,        0.0 ,        0.0 , 0.0
 0.0 ,0.0 ,           0.0 ,            0.0 ,            0.0 ,            0.0 ,              0.0 ,                   0.0 , 297.0 ,69.35929 ,-16.73827 ,           0.0 ,           0.0 ,       0.0 ,19.03542       ,-18.64181   ,-0.07464233      ,0.005804126      ,                 0.0 ,             0.0 ,             0.0 ,                 0.0 ,                 0.0 ,        0.0 ,1.1446829732798296     ,            0.0 ,            0.0 ,            0.0 ,              0.0 ,                   0.0 ,  0.0 ,0.0 , 236.86677469871165  ,0.9999999999999999 ,0.0 ,-156.11210464715833 ,-293.0147297092089  ,9.409089619055912       ,-148.34745746988847 ,          0.0 ,          0.0 ,-155.1471202523186  ,-293.9797141040486  ,-148.34745746988847 ,-597.4742918262558  , 82.20159716152172   ,199.15811505407467  ,142.37732863591347   ,-151.48544617557428   ,-288.3881179016566  ,9.409089619055912       ,-143.72085270908073 ,          0.0 ,          0.0 ,-150.52050844476625  ,-289.3530556324646  ,-143.72085270908073 ,-583.5943701222799  , 82.20159716152172   ,194.5314565824906    ,142.37732863591347   ,-7.04460553297116e-07   ,-6.259118109811589e-08  ,9.483776288922633e-07   ,      0.0 ,      0.0 ,      0.0 ,2.0605200828880197e-07  ,-9.731034417481695e-07  ,      0.0 ,-7.670516130687496e-07  ,6.309216527903345e-07  ,0.38509475620397143  ,0.25152814256917744     ,-0.00012988439547056648 ,-2.260913175968821e-06  ,8.284582862091022e-06  ,13.574510063658959     ,0.0 ,5.904634639974245     ,2.327132075183404       ,        0.0 ,        0.0 , 0.0
 0.0 ,0.0 ,           0.0 ,            0.0 ,            0.0 ,            0.0 ,              0.0 ,                   0.0 , 298.0 ,71.28863 ,-17.01048 ,           0.0 ,           0.0 ,       0.0 ,16.274         ,-18.63788   ,-0.0009806217    ,0.000536225      ,                 0.0 ,             0.0 ,             0.0 ,                 0.0 ,                 0.0 ,        0.0 ,2.497427187666942      ,            0.0 ,            0.0 ,            0.0 ,              0.0 ,                   0.0 ,  0.0 ,0.0 , 228.08337160550747  ,1.0                ,0.0 ,-164.83152926086268 ,-293.6568916138858  ,16.95079687820425       ,-150.25601705808012 ,          0.0 ,          0.0 ,-162.61716790678025 ,-295.87130452712927 ,-150.25601705808012 ,-608.7444379328285  , 80.75025606077503   ,202.9148301334036   ,139.86356887644982   ,-160.6205901447716    ,-289.4460000304125  ,16.95079687820425       ,-146.0450739154457  ,          0.0 ,          0.0 ,-158.40622476414586  ,-291.66031385187716 ,-146.0450739154457  ,-596.111616558012   , 80.75025606077503   ,198.7038394581515    ,139.86356887644982   ,-9.396909655084138e-07  ,-1.9054072493879268e-06 ,2.1584804661804403e-06  ,      0.0 ,      0.0 ,      0.0 ,1.4689344438029107e-07  ,-2.991991453835593e-06  ,      0.0 ,-2.8450982459890172e-06 ,1.7751490121276738e-06 ,0.44894133690470295  ,0.003690062207216338    ,1.8525987893473483e-05  ,-4.4469496262534876e-08 ,0.001014838037616717   ,16.424665351106732     ,0.0 ,0.07498584545916129   ,0.03884344760122201     ,        0.0 ,        0.0 , 0.0
 0.0 ,0.0 ,           0.0 ,            0.0 ,            0.0 ,            0.0 ,              0.0 ,                   0.0 , 299.0 ,72.14056 ,-15.09728 ,           0.0 ,           0.0 ,       0.0 ,35.38602       ,-18.63588   ,0.1042496        ,0.001810765      ,                 0.0 ,             0.0 ,             0.0 ,                 0.0 ,                 0.0 ,        0.0 ,2.7408463031985395     ,            0.0 ,            0.0 ,            0.0 ,              0.0 ,                   0.0 ,  0.0 ,0.0 , 246.08933518145457  ,1.0                ,0.0 ,-143.28091940288084 ,-273.04994998110175 ,17.981796726522255      ,-137.7374159452268  ,          0.0 ,          0.0 ,-140.81841509294358 ,-275.5124971732338  ,-137.7374159452268  ,-554.0683282114042  , 78.72752317156107   ,184.68946092445276  ,136.36005653741415   ,-138.33182940718342   ,-268.1009054234502  ,17.981796726522255      ,-132.78837138757524 ,          0.0 ,          0.0 ,-135.86937053529203  ,-270.56336429534156 ,-132.78837138757524 ,-539.2210607801629  , 78.72752317156107   ,179.74032804656053   ,136.36005653741415   ,-2.041503366274073e-06  ,1.6105795746225498e-08  ,1.5281998924351963e-06  ,      0.0 ,      0.0 ,      0.0 ,2.950059074252726e-07   ,-2.3204034325340107e-06 ,      0.0 ,-2.025397812147988e-06  ,1.4342391949949544e-06 ,0.3997700121295883   ,0.06263793072038573     ,-2.1175670643369694e-06 ,-9.368857359711769e-08  ,8.066925267297087e-06  ,13.217747915354883     ,0.0 ,23.655223243156204    ,2.710018526112886       ,        0.0 ,        0.0 , 0.0
 0.0 ,0.0 ,           0.0 ,            0.0 ,            0.0 ,            0.0 ,              0.0 ,                   0.0 , 300.0 ,73.50733 ,-13.4774  ,           0.0 ,           0.0 ,       0.0 ,51.5531        ,-18.63271   ,0.1419213        ,0.002042923      ,                 0.0 ,             0.0 ,             0.0 ,                 0.0 ,                 0.0 ,        0.0 ,2.782092734185508      ,            0.0 ,            0.0 ,            0.0 ,              0.0 ,                   0.0 ,  0.0 ,0.0 , 270.04183554080623  ,1.0                ,0.0 ,-122.45521285164877 ,-249.58661708972363 ,17.103426971648382      ,-124.21609619456859 ,          0.0 ,          0.0 ,-120.16589826949274 ,-251.87596244290484 ,-124.21609619456859 ,-496.2579569069662  , 74.93596827363628   ,165.41933798628907  ,129.7929084219171    ,-117.47992971876403   ,-244.6112910087399  ,17.103426971648382      ,-119.24081306168381 ,          0.0 ,          0.0 ,-115.19059795736842  ,-246.9006485389949  ,-119.24081306168381 ,-481.33207673728674 , 74.93596827363628   ,160.44402408237914   ,129.7929084219171    ,-1.7867870856470108e-06 ,9.380219507880833e-08   ,1.470102952031572e-06   ,      0.0 ,      0.0 ,      0.0 ,3.68044230288248e-07    ,-2.0610292648335775e-06 ,      0.0 ,-1.6929850742966532e-06 ,1.3123201822336175e-06 ,0.6017795430716548   ,0.09783776460129388     ,-3.273202969372117e-06  ,-1.9505722864083554e-07 ,0.0                    ,3.279411789528473e-06  ,0.0 ,52.41234057332156     ,4.975306588633018       ,        0.0 ,        0.0 , 0.0
 0.0 ,0.0 ,           0.0 ,            0.0 ,            0.0 ,            0.0 ,              0.0 ,                   0.0 , 301.0 ,75.21456 ,-12.76368 ,           0.0 ,           0.0 ,       0.0 ,58.65068       ,-18.62875   ,0.07747989       ,-0.01511848      ,                 0.0 ,             0.0 ,             0.0 ,                 0.0 ,                 0.0 ,        0.0 ,2.2053559146763337     ,            0.0 ,            0.0 ,            0.0 ,              0.0 ,                   0.0 ,  0.0 ,0.0 , 197.80516719079128  ,1.0                ,0.0 ,-109.77930060654575 ,-240.163765753372   ,14.388260654870374      ,-118.20817346118375 ,          0.0 ,          0.0 ,-108.16747944956435 ,-241.7755939610509  ,-118.20817346118375 ,-468.1512454616595  , 74.41772417908795   ,156.0504151538865   ,128.89529471451957   ,-104.79821678075098   ,-235.1826016695303  ,14.388260654870374      ,-113.22708963538898 ,          0.0 ,          0.0 ,-103.18638740953301  ,-236.79443631140563 ,-113.22708963538898 ,-453.2079314415407  , 74.41772417908795   ,151.06933696864974   ,128.89529471451957   ,-2.054830975172176e-06  ,1.8454980357986345e-07  ,1.373691252093823e-06   ,      0.0 ,      0.0 ,      0.0 ,3.9523052532982925e-07  ,-2.2655115015190655e-06 ,      0.0 ,-1.870281064611078e-06  ,1.4368840571678212e-06 ,0.6379620662442699   ,0.08604771431665695     ,-2.8702774354820315e-06 ,-3.7685743990483657e-07 ,0.0                    ,2.8989888997682413e-06 ,0.0 ,59.26796428251393     ,4.9811046791643285      ,        0.0 ,        0.0 , 0.0
 0.0 ,0.0 ,           0.0 ,            0.0 ,            0.0 ,            0.0 ,              0.0 ,                   0.0 , 302.0 ,90.57047 ,-16.87978 ,           0.0 ,           0.0 ,       0.0 ,17.08337       ,-18.58811   ,0.07503601       ,0.00617281       ,                 0.0 ,             0.0 ,             0.0 ,                 0.0 ,                 0.0 ,        0.0 ,1.9931471954364115     ,            0.0 ,            0.0 ,            0.0 ,              0.0 ,                   0.0 ,  0.0 ,0.0 , 178.8901159487363   ,1.0                ,0.0 ,-154.89031268685758 ,-287.15472342937824 ,-2.6659150646077676     ,-146.2907977111305  ,          0.0 ,          0.0 ,-154.81028236225376 ,-287.23470351203287 ,-146.2907977111305  ,-588.3358334847261  , 79.03039852311265   ,196.1119611280117   ,136.88464864394993   ,-150.39814621949932   ,-282.66255696202006 ,-2.6659150646077676     ,-141.79863124377223 ,          0.0 ,          0.0 ,-150.3181158948955   ,-282.7425370446746  ,-141.79863124377223 ,-574.8593332561127  , 79.03039852311265   ,191.61974441870424   ,136.88464864394993   ,-1.4373215590570273e-06 ,-1.7020044169404834e-06 ,2.0784703576799926e-06  ,      0.0 ,      0.0 ,      0.0 ,-6.94665115068318e-08   ,-3.069858920921162e-06  ,      0.0 ,-3.139325778335868e-06  ,1.8639602760341902e-06 ,0.3795145816553776   ,0.00017395640484873886  ,-1.9604088147395132e-05 ,-1.4073368310484257e-08 ,0.00046386869627055823 ,17.700972836839536     ,0.0 ,0.09063433655745104   ,0.01683391441045515     ,        0.0 ,        0.0 , 0.0
 0.0 ,0.0 ,           0.0 ,            0.0 ,            0.0 ,            0.0 ,              0.0 ,                   0.0 , 303.0 ,92.622   ,-16.76662 ,           0.0 ,           0.0 ,       0.0 ,18.13804       ,-18.58042   ,0.06364571       ,-0.002193808     ,                 0.0 ,             0.0 ,             0.0 ,                 0.0 ,                 0.0 ,        0.0 ,2.5067907885142753     ,            0.0 ,            0.0 ,            0.0 ,              0.0 ,                   0.0 ,  0.0 ,0.0 , 180.29856207505426  ,1.0                ,0.0 ,-151.70486045241466 ,-292.9037645703946  ,-2.2320921757312804     ,-147.83493912938488 ,          0.0 ,          0.0 ,-151.63334658005783 ,-292.97527844275146 ,-147.83493912938488 ,-592.4435147998771  , 82.74514204113873   ,197.48115470693273  ,143.31876786103913   ,-147.24673394779649   ,-288.4455887134595  ,-2.2320921757312804     ,-143.37676459921147 ,          0.0 ,          0.0 ,-147.17522007543968  ,-288.51710258581625 ,-143.37676459921147 ,-579.0691365813885  , 82.74514204113873   ,193.02302952907644   ,143.31876786103913   ,-4.439178311264994e-07  ,2.3718534794977117e-07  ,2.5942611433631417e-06  ,      0.0 ,      0.0 ,      0.0 ,1.3854447796924397e-06  ,-1.5921766776205274e-06 ,      0.0 ,-2.067322562816534e-07  ,1.4922676004606198e-06 ,0.3777940891254836   ,0.30121403065773505     ,-0.0009655785099235613  ,-4.043335578351739e-05  ,1.4453298658904569e-05 ,14.173228724346204     ,0.0 ,3.6290313198765536    ,2.028600325750093       ,        0.0 ,        0.0 , 0.0
 0.0 ,0.0 ,           0.0 ,            0.0 ,            0.0 ,            0.0 ,              0.0 ,                   0.0 , 304.0 ,94.70739 ,-16.66101 ,           0.0 ,           0.0 ,       0.0 ,19.10381       ,-18.57139   ,0.04129431       ,0.00105093       ,                 0.0 ,             0.0 ,             0.0 ,                 0.0 ,                 0.0 ,        0.0 ,2.996944949707359      ,            0.0 ,            0.0 ,            0.0 ,              0.0 ,                   0.0 ,  0.0 ,0.0 , 180.60024699615877  ,1.0                ,0.0 ,-148.83475861941355 ,-295.3173404996329  ,-0.46686073670067435    ,-148.09396666015095 ,          0.0 ,          0.0 ,-148.83240738054005 ,-295.31969173850644 ,-148.09396666015095 ,-592.2460148845544  , 84.78904403011128   ,197.41530506335314  ,146.8589155556552    ,-144.38997313333152   ,-290.8725041189079  ,-0.46686073670067435    ,-143.64917907927796 ,          0.0 ,          0.0 ,-144.387621894458    ,-290.8748553577814  ,-143.64917907927796 ,-578.9116566370224  , 84.78904403011128   ,192.97056837712313   ,146.8589155556552    ,5.69522109648197e-07    ,-3.139389712504488e-07  ,3.2664840787189887e-06  ,      0.0 ,      0.0 ,      0.0 ,1.8295537046690764e-06  ,-1.57397075601539e-06   ,      0.0 ,2.5558317015655416e-07  ,1.7042313855193502e-06 ,0.5728832158220103   ,0.3904694640237304      ,-0.0010139287196413117  ,-5.107175641127072e-05  ,8.952702680572903e-08  ,0.088802828143511      ,0.0 ,17.632643624932832    ,4.429748495910284       ,        0.0 ,        0.0 , 0.0
 0.0 ,0.0 ,           0.0 ,            0.0 ,            0.0 ,            0.0 ,              0.0 ,                   0.0 , 305.0 ,96.82646 ,-16.59871 ,           0.0 ,           0.0 ,       0.0 ,19.62028       ,-18.56074   ,0.02376868       ,0.00133322       ,                 0.0 ,             0.0 ,             0.0 ,                 0.0 ,                 0.0 ,        0.0 ,1.5941313516436888     ,            0.0 ,            0.0 ,            0.0 ,              0.0 ,                   0.0 ,  0.0 ,0.0 , 182.8622846576692   ,1.0                ,0.0 ,-149.12493347292178 ,-297.8288699439869  ,-0.8263393080317427     ,-148.96703554602834 ,          0.0 ,          0.0 ,-149.12015579772776 ,-297.8336030930684  ,-148.96703554602834 ,-595.9207944368245  , 85.90559698156284   ,198.64026466728012  ,148.79287052235946   ,-144.5492470573916    ,-293.2531835284567  ,-0.8263393080317427     ,-144.3913975958584  ,          0.0 ,          0.0 ,-144.54446587793396  ,-293.2579131732746  ,-144.3913975958584  ,-582.1937801513305  , 85.90559698156284   ,194.06462671711017   ,148.79287052235946   ,3.445177772562402e-07   ,-2.1170918503513772e-07 ,1.6875311981739486e-06  ,      0.0 ,      0.0 ,      0.0 ,1.0162265446204703e-06  ,-8.834181912219057e-07  ,      0.0 ,1.3280858521257534e-07  ,9.609657339483958e-07  ,0.5430000193035166   ,0.0811096995658984      ,-0.00015847363383287292 ,-9.57912030131418e-06   ,0.00047778340469243805 ,4.792621635844295      ,0.0 ,14.19292566944446     ,2.3887010651883687      ,        0.0 ,        0.0 , 0.0
 0.0 ,0.0 ,           0.0 ,            0.0 ,            0.0 ,            0.0 ,              0.0 ,                   0.0 , 306.0 ,98.94362 ,-16.82123 ,           0.0 ,           0.0 ,       0.0 ,17.27009       ,-18.54823   ,0.0108261        ,-0.0003571983    ,                 0.0 ,             0.0 ,             0.0 ,                 0.0 ,                 0.0 ,        0.0 ,0.06893454405415733    ,            0.0 ,            0.0 ,            0.0 ,              0.0 ,                   0.0 ,  0.0 ,0.0 , 183.06777660654177  ,0.9999999999999999 ,0.0 ,-151.23099329073278 ,-303.9897004206529  ,-0.6532548662460929     ,-151.75153065048733 ,          0.0 ,          0.0 ,-151.2275127270362  ,-303.9931329009182  ,-151.75153065048733 ,-606.9721762784418  , 88.04860949723064   ,202.32407536174554  ,152.50469881661127   ,-146.6755537151521    ,-299.43430931491366 ,-0.6532548662460929     ,-147.19613954474806 ,          0.0 ,          0.0 ,-146.67207142809187  ,-299.43774007181537 ,-147.19613954474806 ,-593.3059527680189  , 88.04860949723064   ,197.76868425600634   ,152.50469881661127   ,-4.24679875463643e-08   ,-4.7627359028825685e-09 ,-9.57071354702788e-09   ,      0.0 ,      0.0 ,      0.0 ,-4.1648821125732736e-09 ,-4.3065839613309996e-08 ,      0.0 ,-4.723072689597407e-08  ,2.3753241152913358e-08 ,0.5533297133681253   ,0.08895966167265679     ,-0.0001637282498991712  ,-1.42984384436709e-05   ,0.0004949924887080978  ,4.372706006619952      ,0.0 ,12.908759618157358    ,2.3818792617491193      ,        0.0 ,        0.0 , 0.0
 0.0 ,0.0 ,           0.0 ,            0.0 ,            0.0 ,            0.0 ,              0.0 ,                   0.0 , 307.0 ,101.023  ,-16.93326 ,           0.0 ,           0.0 ,       0.0 ,15.99521       ,-18.53278   ,0.002297811      ,0.0003023037     ,                 0.0 ,             0.0 ,             0.0 ,                 0.0 ,                 0.0 ,        0.0 ,1.4866136232978293     ,            0.0 ,            0.0 ,            0.0 ,              0.0 ,                   0.0 ,  0.0 ,0.0 , 183.82601143823746  ,1.0                ,0.0 ,-153.24402835578047 ,-307.3523151625088  ,-0.5195392848122428     ,-153.37544485968823 ,          0.0 ,          0.0 ,-153.24090117220533 ,-307.35544234608403 ,-153.37544485968823 ,-613.9717379933904  , 88.93950416498127   ,204.65721282347192  ,154.04774534524105   ,-148.6287189862577    ,-302.737055408399   ,-0.5195392848122428     ,-148.76013596719076 ,          0.0 ,          0.0 ,-148.62559180268252  ,-302.74018259197413 ,-148.76013596719076 ,-600.1258599772605  , 88.93950416498127   ,200.04195306936208   ,154.04774534524105   ,-1.924351318307283e-06  ,-2.643196154970031e-06  ,2.6800057625122496e-06  ,      0.0 ,      0.0 ,      0.0 ,-1.1696417375401661e-07 ,-4.450583692630399e-06  ,      0.0 ,-4.567547473277315e-06  ,2.7008349261606986e-06 ,0.34808286800497934  ,0.0005220575076781493   ,-9.248892662072222e-05  ,-1.407208423372232e-07  ,0.00039773602363050965 ,17.175625060149567     ,0.0 ,0.12704404989063053   ,0.02344172458967115     ,        0.0 ,        0.0 , 0.0
 0.0 ,0.0 ,           0.0 ,            0.0 ,            0.0 ,            0.0 ,              0.0 ,                   0.0 , 308.0 ,103.0654 ,-16.95553 ,           0.0 ,           0.0 ,       0.0 ,15.5817        ,-18.5137    ,-0.001217215     ,0.0004794007     ,                 0.0 ,             0.0 ,             0.0 ,                 0.0 ,                 0.0 ,        0.0 ,2.993885028176233      ,            0.0 ,            0.0 ,            0.0 ,              0.0 ,                   0.0 ,  0.0 ,0.0 , 184.90615939222053  ,1.0                ,0.0 ,-154.02107106195703 ,-308.3324272587245  ,-0.4029914862826683     ,-153.8903056916303  ,          0.0 ,          0.0 ,-154.01920648848244 ,-308.3342918321991  ,-153.8903056916303  ,-616.2438040123119  , 89.13114932343237   ,205.41456800410393  ,154.37968818397533   ,-149.48938652261737   ,-303.80079224070397 ,-0.4029914862826683     ,-149.35862115229062 ,          0.0 ,          0.0 ,-149.48752194914277  ,-303.802657075655   ,-149.35862115229062 ,-602.6488001770884  , 89.13114932343237   ,200.8829332475599    ,154.37968818397533   ,-1.8058787015990108e-06 ,-3.68619665808414e-06   ,1.7117550573075881e-06  ,      0.0 ,      0.0 ,      0.0 ,-9.786866516004718e-08  ,-5.394207592342748e-06  ,      0.0 ,-5.492076858354988e-06  ,3.233211181045381e-06  ,0.37278297479379063  ,-0.0007982350066557303  ,-0.00015410695488502296 ,0.0                     ,0.0008422292601500823  ,16.75875646153578      ,0.0 ,0.0                   ,0.0                     ,        0.0 ,        0.0 , 0.0
 0.0 ,0.0 ,           0.0 ,            0.0 ,            0.0 ,            0.0 ,              0.0 ,                   0.0 , 309.0 ,105.0903 ,-16.92787 ,           0.0 ,           0.0 ,       0.0 ,15.61864       ,-18.48973   ,-0.001484485     ,0.0003357351     ,                 0.0 ,             0.0 ,             0.0 ,                 0.0 ,                 0.0 ,        0.0 ,2.733775433204336      ,            0.0 ,            0.0 ,            0.0 ,              0.0 ,                   0.0 ,  0.0 ,0.0 , 207.69346744689136  ,1.0                ,0.0 ,-153.9247656960972  ,-307.699235250934   ,-0.3744040036840379     ,-153.59822904470678 ,          0.0 ,          0.0 ,-153.92263229058617 ,-307.7013686564451  ,-153.59822904470678 ,-615.2222299917379  , 88.87841514671845   ,205.0740604373179   ,153.94194443890007   ,-149.54506226904047   ,-303.31955664494376 ,-0.3744040036840379     ,-149.21855043871653 ,          0.0 ,          0.0 ,-149.5429536845959   ,-303.32171571056267 ,-149.21855043871653 ,-602.0832198338751  , 88.87841514671845   ,200.6943818313277    ,153.94194443890007   ,-1.8254692085365857e-06 ,-6.108606895501733e-06  ,1.6906077928085284e-06  ,      0.0 ,      0.0 ,      0.0 ,-9.8514737793175e-07    ,-6.9489292709369575e-06 ,      0.0 ,-7.934076952295595e-06  ,3.895327392755439e-06  ,0.5506356843577518   ,0.02792656286619216     ,-0.00018084161832105465 ,-0.0001164480831079362  ,0.0010969890808213503  ,5.761432084670648      ,0.0 ,10.543641552553487    ,1.2325444149925926      ,        0.0 ,        0.0 , 0.0
 0.0 ,0.0 ,           0.0 ,            0.0 ,            0.0 ,            0.0 ,              0.0 ,                   0.0 , 310.0 ,107.1155 ,-16.87088 ,           0.0 ,           0.0 ,       0.0 ,15.87966       ,-18.45885   ,-0.003505644     ,-0.0001351621    ,                 0.0 ,             0.0 ,             0.0 ,                 0.0 ,                 0.0 ,        0.0 ,1.7929940587491378     ,            0.0 ,            0.0 ,            0.0 ,              0.0 ,                   0.0 ,  0.0 ,0.0 , 208.14432678350596  ,1.0                ,0.0 ,-153.80125418535357 ,-306.90398605930363 ,-0.14076328280067676    ,-153.38706723848668 ,          0.0 ,          0.0 ,-153.8005485168054  ,-306.9046917278518  ,-153.38706723848668 ,-614.0923322692684  , 88.5147092719395    ,204.69746916104796  ,153.31198646898926   ,-149.3879475824762    ,-302.4906778094155  ,-0.14076328280067676    ,-148.97378542173385 ,          0.0 ,          0.0 ,-149.38726670005258  ,-302.49143390571464 ,-148.97378542173385 ,-600.8524843804903  , 88.5147092719395    ,200.28416091115986   ,153.31198646898926   ,-1.739510893540751e-06  ,-6.874096201360327e-06  ,2.090635400036239e-06   ,      0.0 ,      0.0 ,      0.0 ,-1.0413363990522733e-06 ,-7.572270555448074e-06  ,      0.0 ,-8.613607176611686e-06  ,4.183265357821637e-06  ,0.5521070817936703   ,0.16901043534348506     ,-0.0007543460859289905  ,-0.00019101476624218842 ,0.0006840708562535913  ,3.906402597889831      ,0.0 ,13.368058830254121    ,2.3445048682059086      ,        0.0 ,        0.0 , 0.0
 0.0 ,0.0 ,           0.0 ,            0.0 ,            0.0 ,            0.0 ,              0.0 ,                   0.0 , 311.0 ,109.1559 ,-16.79736 ,           0.0 ,           0.0 ,       0.0 ,16.20675       ,-18.41803   ,-0.001587452     ,0.000440998      ,                 0.0 ,             0.0 ,             0.0 ,                 0.0 ,                 0.0 ,        0.0 ,2.9911071125153175     ,            0.0 ,            0.0 ,            0.0 ,              0.0 ,                   0.0 ,  0.0 ,0.0 , 202.34236490291374  ,1.0                ,0.0 ,-153.3175861036514  ,-305.579299332799   ,-0.2259155718594733     ,-152.84510892323925 ,          0.0 ,          0.0 ,-153.31693824457344 ,-305.57994719187695 ,-152.84510892323925 ,-611.7419943596897  , 88.04617432911243   ,203.91402022502007  ,152.5004772916471    ,-148.8755658467712    ,-301.13724628057815 ,-0.2259155718594733     ,-148.40310542637394 ,          0.0 ,          0.0 ,-148.87491798769324  ,-301.1379605373264  ,-148.40310542637394 ,-598.4159007937084  , 88.04617432911243   ,199.47195041278425   ,152.5004772916471    ,-1.3193141859797979e-06 ,-6.210070647268903e-06  ,1.6458360654978303e-07  ,      0.0 ,      0.0 ,      0.0 ,-5.993463858068092e-08  ,-7.469449530691317e-06  ,      0.0 ,-7.529387405355441e-06  ,4.389244828616003e-06  ,0.5248612870034293   ,0.37630484595485236     ,-0.0032583501386778497  ,-0.0002986613541551812  ,0.0018207845554008848  ,3.182869577219981      ,0.0 ,12.761075872898044    ,3.631663804590943       ,        0.0 ,        0.0 , 0.0
 0.0 ,0.0 ,           0.0 ,            0.0 ,            0.0 ,            0.0 ,              0.0 ,                   0.0 , 312.0 ,111.2183 ,-16.74633 ,           0.0 ,           0.0 ,       0.0 ,16.17277       ,-18.36361   ,0.001111517      ,0.00136674       ,                 0.0 ,             0.0 ,             0.0 ,                 0.0 ,                 0.0 ,        0.0 ,2.1142270902121614     ,            0.0 ,            0.0 ,            0.0 ,              0.0 ,                   0.0 ,  0.0 ,0.0 , 190.8980031122135   ,1.0                ,0.0 ,-153.22051962518887 ,-304.50088848815875 ,-0.0007136772758857962  ,-152.43076685567695 ,          0.0 ,          0.0 ,-153.220125589264   ,-304.5012825240836  ,-152.43076685567695 ,-610.1521749690246  , 87.57153516531021   ,203.38407837460866  ,151.67834621802547   ,-148.83467196363839   ,-300.11506963610145 ,-0.0007136772758857962  ,-148.04497363757338 ,          0.0 ,          0.0 ,-148.8342779277135   ,-300.1154893059801  ,-148.04497363757338 ,-596.9946607938662  , 87.57153516531021   ,198.9982050791044    ,151.67834621802547   ,-2.3597437080382272e-06 ,-6.520451264080305e-07  ,-1.3096729205375976e-07 ,      0.0 ,      0.0 ,      0.0 ,1.7249482759257105e-06  ,-4.736736854032431e-06  ,      0.0 ,-3.011789587587175e-06  ,3.495355576705051e-06  ,0.43496235165137387  ,0.133716811035017       ,-0.007822154135221058   ,-9.358961652262054e-05  ,0.008900039441474878   ,11.251234397258248     ,0.0 ,1.9988395885217236    ,1.0789387541153725      ,        0.0 ,        0.0 , 0.0
 0.0 ,0.0 ,           0.0 ,            0.0 ,            0.0 ,            0.0 ,              0.0 ,                   0.0 , 313.0 ,113.2556 ,-16.95874 ,           0.0 ,           0.0 ,       0.0 ,13.37566       ,-18.2963    ,4.547746e-05     ,-0.0005743984    ,                 0.0 ,             0.0 ,             0.0 ,                 0.0 ,                 0.0 ,        0.0 ,2.944461921191204      ,            0.0 ,            0.0 ,            0.0 ,              0.0 ,                   0.0 ,  0.0 ,0.0 , 188.80282384635296  ,0.9999999999999999 ,0.0 ,-154.66385783066065 ,-308.0443767111701  ,0.16081982392769117     ,-154.14541018141531 ,          0.0 ,          0.0 ,-154.6636661796516  ,-308.0445683621791  ,-154.14541018141531 ,-616.853694726902   , 88.70540065696412   ,205.61792972192745  ,153.64225628587897   ,-150.53595802190114   ,-303.9165741218509  ,0.16081982392769117     ,-150.01760759209606 ,          0.0 ,          0.0 ,-150.53576637089213  ,-303.9167657728599  ,-150.01760759209606 ,-604.4700425164078  , 88.70540065696412   ,201.49002991316797   ,153.64225628587897   ,-1.6730506918085756e-07 ,-6.781151891045092e-06  ,1.497982890379839e-06   ,      0.0 ,      0.0 ,      0.0 ,3.444184460716949e-06   ,-1.0392642921052572e-05 ,      0.0 ,-6.948460224402936e-06  ,7.284997925897025e-06  ,0.43348580093949324  ,0.35469059982539236     ,-0.012030974250461466   ,-0.003619308112475972   ,0.005546120537756611   ,9.097940692143016      ,0.0 ,2.452567310489284     ,1.7508190047283687      ,        0.0 ,        0.0 , 0.0
 0.0 ,0.0 ,           0.0 ,            0.0 ,            0.0 ,            0.0 ,              0.0 ,                   0.0 , 314.0 ,115.2595 ,-17.06681 ,           0.0 ,           0.0 ,       0.0 ,11.37725       ,-18.20453   ,-0.0008261575    ,-8.15303e-05     ,                 0.0 ,             0.0 ,             0.0 ,                 0.0 ,                 0.0 ,        0.0 ,3.992250662843267      ,            0.0 ,            0.0 ,            0.0 ,              0.0 ,                   0.0 ,  0.0 ,0.0 , 191.08652611666463  ,1.0                ,0.0 ,-155.16518043719503 ,-310.6740602689571  ,0.13841673027268422     ,-155.21246107348233 ,          0.0 ,          0.0 ,-155.1650794685279  ,-310.6741612376242  ,-155.21246107348233 ,-621.0517521641844  , 89.7695932109879    ,207.017267451667    ,155.4854980349724    ,-150.98054531422858   ,-306.4894757242741  ,0.13841673027268422     ,-151.0278763350659  ,          0.0 ,          0.0 ,-150.98044453929487  ,-306.48957649920777 ,-151.0278763350659  ,-608.4978469890185  , 89.7695932109879    ,202.832632522434     ,155.4854980349724    ,6.700890096620181e-06   ,-1.407208903939097e-05  ,2.614959729259013e-06   ,      0.0 ,      0.0 ,      0.0 ,6.7909347011904275e-06  ,-1.4162135155497716e-05 ,      0.0 ,-7.3712035075453376e-06 ,1.0847427989246346e-05 ,0.4045001752279915   ,0.3596368948481132      ,-0.007237118125583686   ,-0.0036501483317309237  ,0.0003614442413330785  ,10.997423750645591     ,0.0 ,2.536054970235242     ,1.7737358053496537      ,        0.0 ,        0.0 , 0.0
 0.0 ,0.0 ,           0.0 ,            0.0 ,            0.0 ,            0.0 ,              0.0 ,                   0.0 , 315.0 ,117.233  ,-17.09832 ,           0.0 ,           0.0 ,       0.0 ,9.780887       ,-18.07641   ,-0.001357476     ,0.0001774606     ,                 0.0 ,             0.0 ,             0.0 ,                 0.0 ,                 0.0 ,        0.0 ,3.0029449838543845     ,            0.0 ,            0.0 ,            0.0 ,              0.0 ,                   0.0 ,  0.0 ,0.0 , 191.92179041315768  ,1.0                ,0.0 ,-153.88900614949986 ,-309.2240514212989  ,-0.3273765973551155     ,-154.53239879453767 ,          0.0 ,          0.0 ,-153.88696189221838 ,-309.22609567858035 ,-154.53239879453767 ,-617.6454566836414  , 89.50010935212407   ,205.88181900064887  ,155.01870902729377   ,-152.77692759190006   ,-308.11197318200414 ,-0.3273765973551155     ,-153.42032055524297 ,          0.0 ,          0.0 ,-152.77488333461855  ,-308.11401743928565 ,-153.42032055524297 ,-614.3092210108421  , 89.50010935212407   ,204.76974044304907   ,155.01870902729377   ,1.6633576589938208e-05  ,-1.5199261734592194e-05 ,-1.7759468522056648e-06 ,      0.0 ,      0.0 ,      0.0 ,1.6740202750482872e-05  ,-1.5305887904686007e-05 ,      0.0 ,1.4343157807668634e-06  ,1.6042104510442408e-05 ,0.4053133101038173   ,0.5004664279157948      ,-0.08852966735999235    ,-0.09114638976377415    ,0.0003644224876908765  ,11.206962642705257     ,0.0 ,-1.314215957540878    ,-1.3186830323366772     ,        0.0 ,        0.0 , 0.0
 0.0 ,0.0 ,           0.0 ,            0.0 ,            0.0 ,            0.0 ,              0.0 ,                   0.0 , 316.0 ,119.1857 ,-17.09141 ,           0.0 ,           0.0 ,       0.0 ,8.002306       ,-17.89164   ,0.0002194734     ,0.0001295375     ,                 0.0 ,             0.0 ,             0.0 ,                 0.0 ,                 0.0 ,        0.0 ,2.5051828109014416     ,            0.0 ,            0.0 ,            0.0 ,              0.0 ,                   0.0 ,  0.0 ,0.0 , 193.03023072843249  ,1.0                ,0.0 ,-154.2976277791006  ,-309.6418250385035  ,-0.26227928476787843    ,-154.56897237138088 ,          0.0 ,          0.0 ,-154.2967726265564  ,-309.64263055193527 ,-154.56897237138088 ,-618.5083755498724  , 89.61051813878626   ,206.16945866315228  ,155.20994594829577   ,-151.5528578806904    ,-306.8970551400933  ,-0.26227928476787843    ,-151.82420247297068 ,          0.0 ,          0.0 ,-151.55205236725863  ,-306.8978606535251  ,-151.82420247297068 ,-610.2741154937544  , 89.61051813878626   ,203.4247384038545    ,155.20994594829577   ,1.3738935776124572e-05  ,-1.7731100381962627e-05 ,1.0961304765255526e-06  ,      0.0 ,      0.0 ,      0.0 ,1.3753324737651409e-05  ,-1.7745489343489463e-05 ,      0.0 ,-3.992163592976486e-06  ,1.5913764389790913e-05 ,0.41204709801207684  ,0.49433275689800044     ,-0.06101001838396052    ,-0.07645704250240841    ,0.0007923922140179298  ,10.352566716612948     ,0.0 ,0.31496488337383705   ,0.3122765779626151      ,        0.0 ,        0.0 , 0.0
 0.0 ,0.0 ,           0.0 ,            0.0 ,            0.0 ,            0.0 ,              0.0 ,                   0.0 , 317.0 ,121.1265 ,-17.06728 ,           0.0 ,           0.0 ,       0.0 ,5.542838       ,-17.62156   ,0.002855712      ,-0.000145629     ,                 0.0 ,             0.0 ,             0.0 ,                 0.0 ,                 0.0 ,        0.0 ,3.9960168620259506     ,            0.0 ,            0.0 ,            0.0 ,              0.0 ,                   0.0 ,  0.0 ,0.0 , 194.0738304042579   ,1.0                ,0.0 ,-153.69854725131808 ,-308.8810511541546  ,-0.23808621515016082    ,-154.1211311858356  ,          0.0 ,          0.0 ,-153.69799842311735 ,-308.88159984958406 ,-154.1211311858356  ,-616.700729458537   , 89.47338179398263   ,205.566893212495    ,154.9724604058827    ,-151.88279420933497   ,-307.0652976215045  ,-0.23808621515016082    ,-152.30542783213332 ,          0.0 ,          0.0 ,-151.88229520218636  ,-307.06584680760096 ,-152.30542783213332 ,-611.2535196629727  , 89.47338179398263   ,203.75118999156396   ,154.9724604058827    ,1.707550037840935e-05   ,-1.7491682683902257e-05 ,2.9220482721362198e-06  ,      0.0 ,      0.0 ,      0.0 ,1.713771880142521e-05   ,-1.755389608902333e-05  ,      0.0 ,-4.16180273801639e-07   ,1.745097536186482e-05  ,0.43064765714450637  ,0.4958649477799232      ,-0.04557880074253154    ,-0.145091515819263      ,0.00265008572162201    ,8.91404202701461       ,0.0 ,-0.596274284820319    ,-0.5962814753137611     ,        0.0 ,        0.0 , 0.0
 0.0 ,0.0 ,           0.0 ,            0.0 ,            0.0 ,            0.0 ,              0.0 ,                   0.0 , 318.0 ,121.1596 ,-15.10653 ,           0.0 ,           0.0 ,       0.0 ,13.95383       ,-16.50191   ,0.005479818      ,0.0002437522     ,                 0.0 ,             0.0 ,             0.0 ,                 0.0 ,                 0.0 ,        0.0 ,3.9999999999999996     ,            0.0 ,            0.0 ,            0.0 ,              0.0 ,                   0.0 ,  0.0 ,0.0 , 215.21448843119512  ,0.9999999999999999 ,0.0 ,-137.51924012899397 ,-276.48857002985807 ,-0.19882396460843674    ,-138.01087569522645 ,          0.0 ,          0.0 ,-137.51894093136627 ,-276.48886922748574 ,-138.01087569522645 ,-552.0186858540784  , 80.09266851117658   ,184.00621205406267  ,138.72461060607984   ,-132.75652302709528   ,-271.72585231174025 ,-0.19882396460843674    ,-133.24815859332776 ,          0.0 ,          0.0 ,-132.75622330632507  ,-271.7261019105541  ,-133.24815859332776 ,-537.7304837171304  , 80.09266851117658   ,179.2434944290215    ,138.72461060607984   ,1.917096243661769e-05   ,-1.5105198605121125e-05 ,6.640818478142295e-07   ,      0.0 ,      0.0 ,      0.0 ,1.918130937468871e-05   ,-1.511554051238119e-05  ,      0.0 ,4.065767360157192e-06   ,1.7191287091004255e-05 ,0.3727418526043724   ,0.19488797017246937     ,-0.013949037520093847   ,-0.012195339029434468   ,0.001905263879024217   ,14.79161946467363      ,0.0 ,5.787147375943258     ,2.28307552033206        ,        0.0 ,        0.0 , 0.0
 0.0 ,0.0 ,           0.0 ,            0.0 ,            0.0 ,            0.0 ,              0.0 ,                   0.0 , 319.0 ,121.1934 ,-13.15018 ,           0.0 ,           0.0 ,       0.0 ,6.640009       ,-13.81418   ,0.009780811      ,0.0001834577     ,                 0.0 ,             0.0 ,             0.0 ,                 0.0 ,                 0.0 ,        0.0 ,2.005220977768304      ,            0.0 ,            0.0 ,            0.0 ,              0.0 ,                   0.0 ,  0.0 ,0.0 , 216.08385242045188  ,1.0                ,0.0 ,-118.86763351477305 ,-238.4791387848147  ,0.5507040765937987      ,-119.59764657118548 ,          0.0 ,          0.0 ,-118.86315668767259 ,-238.48361577266536 ,-119.59764657118548 ,-476.9444689710719  , 68.85473630151836   ,158.98150635712352  ,119.25988293691117   ,-117.83203867982503   ,-237.44359368881777 ,0.5507040765937987      ,-118.56205157548726 ,          0.0 ,          0.0 ,-117.82761143092547  ,-237.44802093771733 ,-118.56205157548726 ,-473.8376837833798  , 68.85473630151836   ,157.9458612611266    ,119.25988293691117   ,1.9220482237424346e-05  ,-3.6668223707092603e-06 ,7.243914113246223e-06   ,      0.0 ,      0.0 ,      0.0 ,2.109197962999209e-05   ,-5.5383247307421005e-06 ,      0.0 ,1.555365887435413e-05   ,1.6056305683704037e-05 ,0.5765348813754251   ,0.030299294341951853    ,-0.6845319035953286     ,-1.3739717285253254e-05 ,0.6857863885736343     ,14.394055547336821     ,0.0 ,0.032326995321865136  ,0.007800035699381696    ,        0.0 ,        0.0 , 0.0
 0.0 ,0.0 ,           0.0 ,            0.0 ,            0.0 ,            0.0 ,              0.0 ,                   0.0 , 320.0 ,121.2096 ,-11.19791 ,           0.0 ,           0.0 ,       0.0 ,4.281036       ,-11.62601   ,0.01383365       ,0.0002892309     ,                 0.0 ,             0.0 ,             0.0 ,                 0.0 ,                 0.0 ,        0.0 ,1.9938760567053586     ,            0.0 ,            0.0 ,            0.0 ,              0.0 ,                   0.0 ,  0.0 ,0.0 , 216.92215915269907  ,1.0                ,0.0 ,-101.89483147044993 ,-204.37438699590575 ,0.23348859433578867     ,-102.35476802698192 ,          0.0 ,          0.0 ,-101.89425282444162 ,-204.37505010337    ,-102.35476802698192 ,-408.62400629095475 , 59.03536560852302   ,136.2079853282525   ,102.25226998185099   ,-99.75856784043643    ,-202.23814835656    ,0.23348859433578867     ,-100.2184547031656  ,          0.0 ,          0.0 ,-99.75793950062531   ,-202.23876156390423 ,-100.2184547031656  ,-402.2150911850718  , 59.03536560852302   ,134.07169699510393   ,102.25226998185099   ,1.423542165277655e-05   ,-7.485247179819178e-06  ,2.2741858337421965e-06  ,      0.0 ,      0.0 ,      0.0 ,1.4312306419959164e-05  ,-7.562130965373621e-06  ,      0.0 ,6.7501774789501745e-06  ,1.3133025390603112e-05 ,0.7779943272599199   ,0.10770003237713047     ,-0.3140543777237373     ,-0.004247452072023352   ,0.30885175803268955    ,-0.2680700973784964    ,0.0 ,9.993463505214647     ,2.4112779837728833      ,        0.0 ,        0.0 , 0.0
 0.0 ,0.0 ,           0.0 ,            0.0 ,            0.0 ,            0.0 ,              0.0 ,                   0.0 , 321.0 ,121.2051 ,-9.248567 ,           0.0 ,           0.0 ,       0.0 ,4.122219       ,-9.660789   ,0.01418497       ,0.0005483773     ,                 0.0 ,             0.0 ,             0.0 ,                 0.0 ,                 0.0 ,        0.0 ,1.4974264423397226     ,            0.0 ,            0.0 ,            0.0 ,              0.0 ,                   0.0 ,  0.0 ,0.0 , 178.00121956000268  ,1.0                ,0.0 ,-84.53887866369652  ,-169.07892207120483 ,-0.1561636108212665     ,-84.87629646682126  ,          0.0 ,          0.0 ,-84.53645759364903  ,-169.08130830651697 ,-84.87629646682126  ,-338.4940424699296  , 48.71472379705034   ,112.83131458108821  , 84.37637509340283   ,-82.28799632538775    ,-166.82800464618248 ,-0.1561636108212665     ,-82.62540915424805  ,          0.0 ,          0.0 ,-82.28557028107585   ,-166.83044062413887 ,-82.62540915424805  ,-331.7413903168185  , 48.71472379705034   ,110.58045180930776   , 84.37637509340283   ,1.2876231226234816e-05  ,-6.874599747879486e-06  ,-5.217546943107247e-06  ,      0.0 ,      0.0 ,      0.0 ,1.3584320410040413e-05  ,-7.582689943198874e-06  ,      0.0 ,6.001636438935716e-06   ,1.1903590943678858e-05 ,0.5916139540345361   ,0.0032541714827193985   ,-0.37332606122243595    ,-0.002132556736238554   ,0.37348847947021063    ,12.979341296864767     ,0.0 ,0.027423053286283184  ,0.020776791782898908    ,        0.0 ,        0.0 , 0.0
 0.0 ,0.0 ,           0.0 ,            0.0 ,            0.0 ,            0.0 ,              0.0 ,                   0.0 , 322.0 ,119.3167 ,-9.371008 ,           0.0 ,           0.0 ,       0.0 ,10.71827       ,-10.44284   ,-0.0004470459    ,9.337084e-06     ,                 0.0 ,             0.0 ,             0.0 ,                 0.0 ,                 0.0 ,        0.0 ,1.5034310285088415     ,            0.0 ,            0.0 ,            0.0 ,              0.0 ,                   0.0 ,  0.0 ,0.0 , 218.72550283540676  ,1.0                ,0.0 ,-85.59475587333756  ,-171.56783422707753 ,0.39719242397573296     ,-86.08999402257648  ,          0.0 ,          0.0 ,-85.5926980078646   ,-171.56992664607026 ,-86.08999402257648  ,-343.25257867666016 , 49.49638408707075   ,114.41750944402298  , 85.73025468683622   ,-83.37806336843158    ,-169.35115110384226 ,0.39719242397573296     ,-83.87330144890109  ,          0.0 ,          0.0 ,-83.37600543418921   ,-169.3531945536319  ,-83.87330144890109  ,-336.6024810239569  , 49.49638408707075   ,112.20082707725118   , 85.73025468683622   ,1.922644214675931e-05   ,-3.4268535333302684e-06 ,7.32880923861542e-07    ,      0.0 ,      0.0 ,      0.0 ,1.928381069150763e-05   ,-3.4842230712165266e-06 ,      0.0 ,1.5799586654720458e-05  ,1.3222116493718822e-05 ,0.753640048602503    ,0.06215893183043267     ,-0.30453357612401644    ,-0.0005471266317655016  ,0.30435835234377523    ,-0.08883279065757654   ,0.0 ,16.399925231757358    ,2.454799546271086       ,        0.0 ,        0.0 , 0.0
 0.0 ,0.0 ,           0.0 ,            0.0 ,            0.0 ,            0.0 ,              0.0 ,                   0.0 , 323.0 ,117.4427 ,-9.488914 ,           0.0 ,           0.0 ,       0.0 ,20.14803       ,-11.50372   ,0.00113896       ,0.0001239909     ,                 0.0 ,             0.0 ,             0.0 ,                 0.0 ,                 0.0 ,        0.0 ,2.9888858899463253     ,            0.0 ,            0.0 ,            0.0 ,              0.0 ,                   0.0 ,  0.0 ,0.0 , 222.63216511459348  ,1.0                ,0.0 ,-89.1706185368957   ,-173.9066503458145  ,-0.32229403222858716    ,-87.80543777683494  ,          0.0 ,          0.0 ,-89.16233777421093  ,-173.91494103620707 ,-87.80543777683494  ,-350.88275565173115 , 49.334539846853346  ,116.96093507517398  , 85.44993131190263   ,-84.36795489239964    ,-169.10401110299205 ,-0.32229403222858716    ,-83.00277413233889  ,          0.0 ,          0.0 ,-84.35967412971486   ,-169.11230179338457 ,-83.00277413233889  ,-336.4747400165894  , 49.334539846853346  ,112.158246388057     , 85.44993131190263   ,8.652159853263985e-06   ,-3.7156007585871667e-06 ,-7.844621747960579e-06  ,      0.0 ,      0.0 ,      0.0 ,2.1735573644673288e-05  ,-1.679901504443941e-05  ,      0.0 ,4.936557078923413e-06   ,1.9418190752764353e-05 ,0.3785474935233327   ,0.1485654259133231      ,-0.019257032337957468   ,-0.03103357872783804    ,0.0018527544975518511  ,9.357217259311259      ,0.0 ,8.197786321492972     ,2.4072179201545376      ,        0.0 ,        0.0 , 0.0
 0.0 ,0.0 ,           0.0 ,            0.0 ,            0.0 ,            0.0 ,              0.0 ,                   0.0 , 324.0 ,115.5859 ,-9.608644 ,           0.0 ,           0.0 ,       0.0 ,32.00377       ,-12.80902   ,0.002911848      ,0.0004758816     ,                 0.0 ,             0.0 ,             0.0 ,                 0.0 ,                 0.0 ,        0.0 ,1.5302153437468513     ,            0.0 ,            0.0 ,            0.0 ,              0.0 ,                   0.0 ,  0.0 ,0.0 , 223.51555563256397  ,1.0                ,0.0 ,-90.66715029024063  ,-177.5529838611329  ,0.016003535990243276    ,-89.23712904372672  ,          0.0 ,          0.0 ,-90.66622747319423  ,-177.55397558505044 ,-89.23712904372672  ,-357.4572986529393  , 50.5824590590857    ,119.15241647712249  , 87.61138758466547   ,-85.71883623745663    ,-172.6046805683414  ,0.016003535990243276    ,-84.28881499094271  ,          0.0 ,          0.0 ,-85.71791342041023   ,-172.605623070687   ,-84.28881499094271  ,-342.6123368745836  , 50.5824590590857    ,114.2041118451263    , 87.61138758466547   ,3.3393244139093554e-06  ,-3.1349173659480633e-06 ,-2.204506033987689e-06  ,      0.0 ,      0.0 ,      0.0 ,3.834977933249756e-06   ,-3.6305708986805106e-06 ,      0.0 ,2.0440707944420314e-07  ,3.736901612984942e-06  ,0.30639179826104146  ,0.09511837074758046     ,-0.002538240248681301   ,-0.00417119911693746    ,0.00010653438270797404 ,34.51064582333724      ,0.0 ,13.391536368602688    ,2.493472311188941       ,        0.0 ,        0.0 , 0.0
 0.0 ,0.0 ,           0.0 ,            0.0 ,            0.0 ,            0.0 ,              0.0 ,                   0.0 , 325.0 ,113.7511 ,-9.748696 ,           0.0 ,           0.0 ,       0.0 ,44.54176       ,-14.20287   ,-0.0005652403    ,-7.695946e-05    ,                 0.0 ,             0.0 ,             0.0 ,                 0.0 ,                 0.0 ,        0.0 ,2.0151005220185256     ,            0.0 ,            0.0 ,            0.0 ,              0.0 ,                   0.0 ,  0.0 ,0.0 , 224.34829274892206  ,1.0                ,0.0 ,-92.00643162014228  ,-179.7041130016607  ,0.28423902926271133     ,-90.41776901547274  ,          0.0 ,          0.0 ,-92.0042540957806   ,-179.70624277526673 ,-90.41776901547274  ,-362.128289881138   , 51.099531824186116  ,120.70946212802428  , 88.50698083094326   ,-87.12941205488725    ,-174.82707440606407 ,0.28423902926271133     ,-85.54074945021772  ,          0.0 ,          0.0 ,-87.12723453052556   ,-174.829251437631   ,-85.54074945021772  ,-347.4972211138289  , 51.099531824186116  ,115.83237428745383   , 88.50698083094326   ,2.5104857888964464e-06  ,-2.615236547610862e-07  ,2.463260372319155e-06   ,      0.0 ,      0.0 ,      0.0 ,6.52619382385296e-06    ,-4.2772316897176e-06    ,      0.0 ,2.2489619416064518e-06  ,5.466506574512698e-06  ,0.5179322543457551   ,0.18381095082021282     ,-0.009676879901062805   ,-0.01363995776076122    ,3.7844960478222726e-06 ,1.2424982341294135     ,0.0 ,43.06185007493287     ,4.789813495094828       ,        0.0 ,        0.0 , 0.0
 0.0 ,0.0 ,           0.0 ,            0.0 ,            0.0 ,            0.0 ,              0.0 ,                   0.0 , 326.0 ,111.9361 ,-9.969602 ,           0.0 ,           0.0 ,       0.0 ,55.46783       ,-15.51639   ,-0.0007983383    ,-0.000271833     ,                 0.0 ,             0.0 ,             0.0 ,                 0.0 ,                 0.0 ,        0.0 ,2.000227738535431      ,            0.0 ,            0.0 ,            0.0 ,              0.0 ,                   0.0 ,  0.0 ,0.0 , 225.72342074947562  ,1.0                ,0.0 ,-94.96796342786254  ,-184.27374337260366 ,-0.13225160175217016    ,-92.74821098590856  ,          0.0 ,          0.0 ,-94.96777031247748  ,-184.2739409017242  ,-92.74821098590856  ,-371.9898774763761  , 52.213835077394435  ,123.99659331575184  , 90.43701707786047   ,-89.9874267757803     ,-179.29324100160338 ,-0.13225160175217016    ,-87.76768923946031  ,          0.0 ,          0.0 ,-89.98722869185059   ,-179.29343976616366 ,-87.76768923946031  ,-357.04832254247526 , 52.213835077394435  ,119.01614002386525   , 90.43701707786047   ,-1.941489234652091e-06  ,-4.898488607714131e-07  ,-2.6634799814504887e-06 ,      0.0 ,      0.0 ,      0.0 ,4.0605517711854724e-07  ,-2.837393567016733e-06  ,      0.0 ,-2.43133819852349e-06   ,1.7746552779673605e-06 ,0.30834202771724034  ,0.051785053428721604    ,-0.00044826596237743815 ,-0.0004705320889059367  ,0.00017973173872330082 ,34.45227766408078      ,0.0 ,24.96155934318912     ,2.5327696261738044      ,        0.0 ,        0.0 , 0.0
 0.0 ,0.0 ,           0.0 ,            0.0 ,            0.0 ,            0.0 ,              0.0 ,                   0.0 , 327.0 ,110.13   ,-10.35745 ,           0.0 ,           0.0 ,       0.0 ,62.84898       ,-16.64235   ,0.0008428348     ,0.0005265659     ,                 0.0 ,             0.0 ,             0.0 ,                 0.0 ,                 0.0 ,        0.0 ,2.4492465711950753     ,            0.0 ,            0.0 ,            0.0 ,              0.0 ,                   0.0 ,  0.0 ,0.0 , 229.34247030189232  ,0.9999999999999999 ,0.0 ,-98.22230553193026  ,-191.29051333707508 ,0.2027265201765447      ,-96.21539573258235  ,          0.0 ,          0.0 ,-98.21995223843095  ,-191.29284657789717 ,-96.21539573258235  ,-385.72816299760217 , 54.3244875885559    ,128.5760385862356   , 94.09278251667301   ,-93.25285575949766    ,-186.32106944565112 ,0.2027265201765447      ,-91.24598472898548  ,          0.0 ,          0.0 ,-93.25052724256511   ,-186.3234026864732  ,-91.24598472898548  ,-370.8198849781678  , 54.3244875885559    ,123.60664514167809   , 94.09278251667301   ,-1.861585173408898e-06  ,1.0209944757608897e-07  ,-2.1274510857974772e-07 ,      0.0 ,      0.0 ,      0.0 ,1.7960745621099592e-06  ,-3.5555602635462234e-06 ,      0.0 ,-1.7594857923260617e-06 ,2.8351096912415123e-06 ,0.2049478921697419   ,0.047695935865186494    ,-0.0010435897819654149  ,-0.0008702015933974304  ,0.00021505511763960812 ,48.44512617026557      ,0.0 ,8.073055049479123     ,1.3786725313880666      ,        0.0 ,        0.0 , 0.0
 0.0 ,0.0 ,           0.0 ,            0.0 ,            0.0 ,            0.0 ,              0.0 ,                   0.0 , 328.0 ,108.2466 ,-10.60126 ,           0.0 ,           0.0 ,       0.0 ,67.72387       ,-17.37364   ,0.0006837394     ,0.000295763      ,                 0.0 ,             0.0 ,             0.0 ,                 0.0 ,                 0.0 ,        0.0 ,1.003580591448115      ,            0.0 ,            0.0 ,            0.0 ,              0.0 ,                   0.0 ,  0.0 ,0.0 , 229.17241158895115  ,1.0                ,0.0 ,-100.12614583967918 ,-195.60788944316957 ,-0.00013481109713262343 ,-98.26089818895505  ,          0.0 ,          0.0 ,-100.12604443528    ,-195.60796315127038 ,-98.26089818895505  ,-393.9949397503034  , 55.67357103382894   ,131.3316460632866   , 96.42945021899381   ,-95.14026640521999    ,-190.62206547176118 ,-0.00013481109713262343 ,-93.27507013590983  ,          0.0 ,          0.0 ,-95.14021638223477   ,-190.62211565079076 ,-93.27507013590983  ,-379.03734310462255 , 55.67357103382894   ,126.34577227090779   , 96.42945021899381   ,-1.0328891590407658e-06 ,-2.1475289894803037e-07 ,-1.353550469773641e-06  ,      0.0 ,      0.0 ,      0.0 ,1.6697689292281755e-07  ,-1.4146191014487025e-06 ,      0.0 ,-1.2476421081678256e-06 ,8.689527640568291e-07  ,0.1832254651489869   ,0.015476304123168114    ,-0.00017854242899978205 ,-2.7485178681531917e-05 ,0.0001791084941806458  ,49.307655946531284     ,0.0 ,17.75512420909971     ,1.173879481198555       ,        0.0 ,        0.0 , 0.0
 0.0 ,0.0 ,           0.0 ,            0.0 ,            0.0 ,            0.0 ,              0.0 ,                   0.0 , 329.0 ,106.3322 ,-10.77617 ,           0.0 ,           0.0 ,       0.0 ,70.52843       ,-17.82901   ,0.001722834      ,0.0003424975     ,                 0.0 ,             0.0 ,             0.0 ,                 0.0 ,                 0.0 ,        0.0 ,0.0                    ,            0.0 ,            0.0 ,            0.0 ,              0.0 ,                   0.0 ,  0.0 ,0.0 , 229.36349553338306  ,0.9999999999999999 ,0.0 ,-101.53759962368837 ,-198.67870071627326 ,0.0828083619442851      ,-99.72557738751905  ,          0.0 ,          0.0 ,-101.53754423768409 ,-198.67880018097463 ,-99.72557738751905  ,-399.94191738436575 , 56.61526737026074   ,133.31398898515738  , 98.06052752650078   ,-96.55094325081683    ,-193.6920746213642  ,0.0828083619442851      ,-94.73897144354115  ,          0.0 ,          0.0 ,-96.55088840011119   ,-193.6921744085542  ,-94.73897144354115  ,-384.98198878042353 , 56.61526737026074   ,128.3273127838433    , 98.06052752650078   ,0.0                     ,0.0                     ,0.0                     ,      0.0 ,      0.0 ,      0.0 ,0.0                     ,0.0                     ,      0.0 ,0.0                     ,0.0                    ,0.5349007963343932   ,0.07232522637375824     ,-6.19196741682009e-05   ,-0.00010230609379720628 ,9.087598963510334e-07  ,0.3303296206397402     ,0.0 ,68.77732274035964     ,4.959961232100397       ,        0.0 ,        0.0 , 0.0
 0.0 ,0.0 ,           0.0 ,            0.0 ,            0.0 ,            0.0 ,              0.0 ,                   0.0 , 330.0 ,104.4132 ,-10.91482 ,           0.0 ,           0.0 ,       0.0 ,71.90157       ,-18.10498   ,0.002482036      ,0.0002039477     ,                 0.0 ,             0.0 ,             0.0 ,                 0.0 ,                 0.0 ,        0.0 ,1.4914195855396042     ,            0.0 ,            0.0 ,            0.0 ,              0.0 ,                   0.0 ,  0.0 ,0.0 , 230.40257837485484  ,1.0                ,0.0 ,-102.45816342906903 ,-200.98483073088732 ,0.16743335282068825     ,-100.88792600844124 ,          0.0 ,          0.0 ,-102.45766552620688 ,-200.98532863374948 ,-100.88792600844124 ,-404.3309201683976  , 57.34457330452517   ,134.77697345312342  , 99.32371346688504   ,-97.47177127921478    ,-195.99845362890983 ,0.16743335282068825     ,-95.9015892878748   ,          0.0 ,          0.0 ,-97.47127337635263   ,-195.99895229477227 ,-95.9015892878748   ,-389.37183895750616 , 57.34457330452517   ,129.7905961601732    , 99.32371346688504   ,1.5264396088276596e-06  ,-7.902778842444822e-07  ,1.4196112124749053e-06  ,      0.0 ,      0.0 ,      0.0 ,1.7266164541791997e-06  ,-9.904547295960222e-07  ,      0.0 ,7.361617245831775e-07   ,1.3750560466366333e-06 ,0.07676490100542624  ,0.0005551056733848704   ,-7.599785524586893e-05  ,-6.78993052471926e-07   ,9.055085366623763e-05  ,68.86568883564021      ,0.0 ,0.47973926250492477   ,0.03802995696453331     ,        0.0 ,        0.0 , 0.0
 0.0 ,0.0 ,           0.0 ,            0.0 ,            0.0 ,            0.0 ,              0.0 ,                   0.0 , 331.0 ,102.5058 ,-11.02857 ,           0.0 ,           0.0 ,       0.0 ,72.46004       ,-18.27457   ,0.002565131      ,0.0001291321     ,                 0.0 ,             0.0 ,             0.0 ,                 0.0 ,                 0.0 ,        0.0 ,0.03144691001715194    ,            0.0 ,            0.0 ,            0.0 ,              0.0 ,                   0.0 ,  0.0 ,0.0 , 231.5454595508271   ,1.0                ,0.0 ,-103.79773620313857 ,-202.6657755458013  ,0.051277611818917775    ,-101.8011133452888  ,          0.0 ,          0.0 ,-103.79772078547963 ,-202.66578602810463 ,-101.8011133452888  ,-408.26468949850914 , 57.66715551874543   ,136.0881971983233   , 99.88243113311657   ,-98.81032112894079    ,-197.67838126125625 ,0.051277611818917775    ,-96.81369931932136  ,          0.0 ,          0.0 ,-98.81030571128186   ,-197.67844134177324 ,-96.81369931932136  ,-393.30240688953165 , 57.66715551874543   ,131.10080186554788   , 99.88243113311657   ,3.218531491126469e-08   ,-1.6663183020618523e-08 ,2.993281467594945e-08   ,      0.0 ,      0.0 ,      0.0 ,3.64060877268568e-08    ,-2.088395583621064e-08  ,      0.0 ,1.5522131890646165e-08  ,2.8993359203793714e-08 ,0.5341249921633963   ,0.06957574067722401     ,-2.332866806716982e-05  ,-3.8961431579776936e-05 ,1.0362556650396335e-06 ,0.6309049211626123     ,0.0 ,71.15405082500043     ,4.93517635222869        ,        0.0 ,        0.0 , 0.0
 0.0 ,0.0 ,           0.0 ,            0.0 ,            0.0 ,            0.0 ,              0.0 ,                   0.0 , 332.0 ,100.6268 ,-11.11953 ,           0.0 ,           0.0 ,       0.0 ,72.60858       ,-18.38039   ,0.004622459      ,0.0002847781     ,                 0.0 ,             0.0 ,             0.0 ,                 0.0 ,                 0.0 ,        0.0 ,1.9839482925581373     ,            0.0 ,            0.0 ,            0.0 ,              0.0 ,                   0.0 ,  0.0 ,0.0 , 232.74781881281535  ,1.0                ,0.0 ,-104.32933269218118 ,-203.3574242963378  ,0.2665935279158443      ,-102.26264305234156 ,          0.0 ,          0.0 ,-104.32856431332422 ,-203.3581674747347  ,-102.26264305234156 ,-409.94941098780697 , 57.781941549182925  ,136.64980307418872  ,100.08127984084751   ,-99.34238147566137    ,-198.37047307981797 ,0.2665935279158443      ,-97.27569183582173  ,          0.0 ,          0.0 ,-99.34166285595427   ,-198.3712173816854  ,-97.27569183582173  ,-394.9885573382476  , 57.781941549182925  ,131.6628518576689    ,100.08127984084751   ,1.1752248214529095e-06  ,-4.377338677558211e-07  ,2.4770719632815944e-06  ,      0.0 ,      0.0 ,      0.0 ,2.050049431568209e-06   ,-1.3125578820448625e-06 ,      0.0 ,7.37491470935539e-07    ,1.702542687688876e-06  ,0.306133564430818    ,0.03130194865690891     ,-3.288879116339875e-05  ,-2.6184274955551178e-05 ,2.0768832240748506e-05 ,30.629349812371537     ,0.0 ,40.27550646256847     ,2.507151107780963       ,        0.0 ,        0.0 , 0.0
 0.0 ,0.0 ,           0.0 ,            0.0 ,            0.0 ,            0.0 ,              0.0 ,                   0.0 , 333.0 ,98.7993  ,-11.2056  ,           0.0 ,           0.0 ,       0.0 ,72.42582       ,-18.44819   ,0.00458506       ,0.0001185712     ,                 0.0 ,             0.0 ,             0.0 ,                 0.0 ,                 0.0 ,        0.0 ,2.049399460489171      ,            0.0 ,            0.0 ,            0.0 ,              0.0 ,                   0.0 ,  0.0 ,0.0 , 234.06246330318905  ,1.0                ,0.0 ,-105.9798164595503  ,-203.88132864131924 ,-0.5179762983279366     ,-102.84965902725357 ,          0.0 ,          0.0 ,-105.9765586972243  ,-203.88454743662277 ,-102.84965902725357 ,-412.7107090533618  , 57.451488577508215  ,137.57023719943845  , 99.5089048213161    ,-100.99185876285495   ,-198.89334170061187 ,-0.5179762983279366     ,-97.86170133055822  ,          0.0 ,          0.0 ,-100.98860100052894  ,-198.89660922343865 ,-97.86170133055822  ,-397.74689692127276 , 57.451488577508215  ,132.58229898625433   , 99.5089048213161    ,-1.3722522612502929e-06 ,-9.281591822091872e-08  ,-4.2301638893461024e-07 ,      0.0 ,      0.0 ,      0.0 ,-5.87574097019278e-08   ,-1.4063112308841623e-06 ,      0.0 ,-1.4650685381161172e-06 ,7.955148762282164e-07  ,0.30922295655777765  ,0.039025165717949624    ,-1.3042191354566268e-05 ,-8.021907949707599e-06  ,1.060186655403793e-05  ,39.58563288782489      ,0.0 ,33.53000938611997     ,2.554304882071237       ,        0.0 ,        0.0 , 0.0
 0.0 ,0.0 ,           0.0 ,            0.0 ,            0.0 ,            0.0 ,              0.0 ,                   0.0 , 334.0 ,97.04908 ,-11.38718 ,           0.0 ,           0.0 ,       0.0 ,71.09888       ,-18.49707   ,0.004129324      ,-0.001577099     ,                 0.0 ,             0.0 ,             0.0 ,                 0.0 ,                 0.0 ,        0.0 ,1.007416424800187      ,            0.0 ,            0.0 ,            0.0 ,              0.0 ,                   0.0 ,  0.0 ,0.0 , 227.5282979461636   ,1.0                ,0.0 ,-108.22863623505584 ,-206.92769074602901 ,-1.1915202320178435     ,-104.53622026263727 ,          0.0 ,          0.0 ,-108.21159770575159 ,-206.94479254680962 ,-104.53622026263727 ,-419.69261051519845 , 58.09399380856513   ,139.89757017173284  ,100.6217366869459    ,-103.24192711019374   ,-201.94096581370192 ,-1.1915202320178435     ,-99.54951113777518  ,          0.0 ,          0.0 ,-103.2248832339538   ,-201.95807296141822 ,-99.54951113777518  ,-404.73244641208856 , 58.09399380856513   ,134.91084523940572   ,100.6217366869459    ,-3.306600498152344e-08  ,1.3780857012683608e-07  ,1.3947069831497419e-06  ,      0.0 ,      0.0 ,      0.0 ,8.103088158986751e-07   ,-7.055660760047559e-07  ,      0.0 ,1.0474259166745712e-07  ,7.602911134609726e-07  ,0.2929924134522628   ,0.039586379551227166    ,-1.3816011668390676e-05 ,-1.36692975531862e-05   ,7.708975997257405e-06  ,42.08353562889432      ,0.0 ,28.757920061526764    ,2.376607590518688       ,        0.0 ,        0.0 , 0.0
 0.0 ,0.0 ,           0.0 ,            0.0 ,            0.0 ,            0.0 ,              0.0 ,                   0.0 , 335.0 ,95.39962 ,-12.06598 ,           0.0 ,           0.0 ,       0.0 ,64.71779       ,-18.53776   ,-0.00291527      ,-0.0003918546    ,                 0.0 ,             0.0 ,             0.0 ,                 0.0 ,                 0.0 ,        0.0 ,2.2612605191046837     ,            0.0 ,            0.0 ,            0.0 ,              0.0 ,                   0.0 ,  0.0 ,0.0 , 245.59579731992858  ,1.0                ,0.0 ,-114.00303656147824 ,-217.67053024437445 ,-1.8984319953436377     ,-110.06084766462214 ,          0.0 ,          0.0 ,-113.95542351289617 ,-217.71819332240273 ,-110.06084766462214 ,-441.73447244808835 , 61.06348381709296   ,147.24485748269612  ,105.76504705174048   ,-109.01881496709578   ,-212.6862666276055  ,-1.8984319953436377     ,-105.07662607023968 ,          0.0 ,          0.0 ,-108.97115989612723  ,-212.73397172802026 ,-105.07662607023968 ,-426.7817576943872  , 61.06348381709296   ,142.26058591775987   ,105.76504705174048   ,8.186664704133496e-07   ,-1.4267671961100702e-07 ,2.7805759744555957e-06  ,      0.0 ,      0.0 ,      0.0 ,2.0452552561788493e-06  ,-1.3692652632363358e-06 ,      0.0 ,6.759898178394521e-07   ,1.7255445723776443e-06 ,0.5418374185336897   ,0.07884093044439175     ,-1.1529351143759664e-05 ,-1.9768067527645386e-05 ,0.0                    ,2.2974678455698923e-05 ,0.0 ,64.04409980529562     ,4.984236854466971       ,        0.0 ,        0.0 , 0.0
 0.0 ,0.0 ,           0.0 ,            0.0 ,            0.0 ,            0.0 ,              0.0 ,                   0.0 , 336.0 ,93.39184 ,-12.33019 ,           0.0 ,           0.0 ,       0.0 ,62.30117       ,-18.5603    ,0.0003244828     ,0.001134045      ,                 0.0 ,             0.0 ,             0.0 ,                 0.0 ,                 0.0 ,        0.0 ,1.4789419353009365     ,            0.0 ,            0.0 ,            0.0 ,              0.0 ,                   0.0 ,  0.0 ,0.0 , 256.4095445878398   ,1.0                ,0.0 ,-116.60154466809331 ,-220.31919377911305 ,-3.5779336173252148     ,-111.70241510818921 ,          0.0 ,          0.0 ,-116.47766555245713 ,-220.44307289474926 ,-111.70241510818921 ,-448.6231539569609  , 61.44940695155634   ,149.5410846523203   ,106.43347503063615   ,-111.61962307604739   ,-215.33722288900265 ,-3.5779336173252148     ,-106.72044321577312 ,          0.0 ,          0.0 ,-111.49569466234668  ,-215.46115130270334 ,-106.72044321577312 ,-433.6772891808231  , 61.44940695155634   ,144.55906306027435   ,106.43347503063615   ,1.1842381056599698e-06  ,-4.2175682271686394e-07 ,1.5642685042968337e-06  ,      0.0 ,      0.0 ,      0.0 ,1.5021953393496731e-06  ,-7.397140071085027e-07  ,      0.0 ,7.624813322411703e-07   ,1.1423603858199887e-06 ,0.5411579135906406   ,0.08362098491739253     ,-6.072471817997333e-06  ,-6.671540232506387e-06  ,0.0                    ,9.035836399990497e-06  ,0.0 ,61.47034498563578     ,4.9819504015114005      ,        0.0 ,        0.0 , 0.0
 0.0 ,0.0 ,           0.0 ,            0.0 ,            0.0 ,            0.0 ,              0.0 ,                   0.0 , 337.0 ,91.29834 ,-12.52818 ,           0.0 ,           0.0 ,       0.0 ,60.47356       ,-18.57553   ,-0.02413306      ,-4.917789e-06    ,                 0.0 ,             0.0 ,             0.0 ,                 0.0 ,                 0.0 ,        0.0 ,2.5486763334114038     ,            0.0 ,            0.0 ,            0.0 ,              0.0 ,                   0.0 ,  0.0 ,0.0 , 263.80364026227494  ,1.0                ,0.0 ,-118.84727761151044 ,-224.15346780534657 ,-7.086311536745498      ,-113.55963962183367 ,          0.0 ,          0.0 ,-118.33428521201493 ,-224.66644530026227 ,-113.55963962183367 ,-456.5603332041013  , 62.81601679112177   ,152.18679378983734  ,108.8005449047223    ,-113.86866497117467   ,-219.17485019681754 ,-7.086311536745498      ,-108.58100365705357 ,          0.0 ,          0.0 ,-113.35567257167916  ,-219.68782769173322 ,-108.58100365705357 ,-441.62450888865925 , 62.81601679112177   ,147.20815285686396   ,108.8005449047223    ,-8.100623737850844e-08  ,-2.138729052040057e-07  ,1.6455202329041216e-06  ,      0.0 ,      0.0 ,      0.0 ,1.224223537798845e-06   ,-1.5191028131968176e-06 ,      0.0 ,-2.9487915119314087e-07 ,1.4540125136665897e-06 ,0.31108241784939095  ,0.03592823034328636     ,-4.508332599411828e-06  ,-1.943288586561821e-06  ,5.807588857034194e-06  ,24.77784345692967      ,0.0 ,35.41690457216113     ,2.400933333858104       ,        0.0 ,        0.0 , 0.0
 0.0 ,0.0 ,           0.0 ,            0.0 ,            0.0 ,            0.0 ,              0.0 ,                   0.0 , 338.0 ,89.12481 ,-12.71852 ,           0.0 ,           0.0 ,       0.0 ,58.6867        ,-18.58719   ,-0.08154137      ,-0.002360149     ,                 0.0 ,             0.0 ,             0.0 ,                 0.0 ,                 0.0 ,        0.0 ,2.502857063012951      ,            0.0 ,            0.0 ,            0.0 ,              0.0 ,                   0.0 ,  0.0 ,0.0 , 262.50094474675     ,1.0                ,0.0 ,-119.46179538297898 ,-231.22974802301889 ,-11.857496032782514     ,-116.3170305073479  ,          0.0 ,          0.0 ,-118.1591275049206  ,-232.53245351055918 ,-116.3170305073479  ,-467.0085413514039  , 66.58200059846621   ,155.66952300600903  ,115.32340423826055   ,-114.48503938135372   ,-226.2529795928202  ,-11.857496032782514     ,-111.34027450572262 ,          0.0 ,          0.0 ,-113.18236901758064  ,-227.55570993750732 ,-111.34027450572262 ,-452.07828353703775 , 66.58200059846621   ,150.6927794329572    ,115.32340423826055   ,3.387383237633793e-07   ,1.259269796348089e-07   ,2.8659214708346816e-06  ,      0.0 ,      0.0 ,      0.0 ,1.953691422945572e-06   ,-1.4890262376903397e-06 ,      0.0 ,4.6466526263614955e-07  ,1.748113039723306e-06  ,0.09350731019232562  ,-7.963713150132589e-06  ,-3.778135831327271e-06  ,0.0                     ,8.987723195614102e-06  ,58.22268991101252      ,0.0 ,0.0                   ,0.0                     ,        0.0 ,        0.0 , 0.0
 0.0 ,0.0 ,           0.0 ,            0.0 ,            0.0 ,            0.0 ,              0.0 ,                   0.0 , 339.0 ,86.81962 ,-12.90904 ,           0.0 ,           0.0 ,       0.0 ,56.87997       ,-18.59704   ,-0.1427928       ,-0.002469295     ,                 0.0 ,             0.0 ,             0.0 ,                 0.0 ,                 0.0 ,        0.0 ,2.143887815805247      ,            0.0 ,            0.0 ,            0.0 ,              0.0 ,                   0.0 ,  0.0 ,0.0 , 264.4060928773323   ,1.0                ,0.0 ,-116.82526090530688 ,-239.13049044102604 ,-13.717346419019853     ,-118.97746865393945 ,          0.0 ,          0.0 ,-115.20638608723849 ,-240.74942512777102 ,-118.97746865393945 ,-474.9332034756098  , 71.46286307840977   ,158.31108902321668  ,123.77728266700677   ,-111.84897320433977   ,-234.1541909367285  ,-13.717346419019853     ,-114.00118095297233 ,          0.0 ,          0.0 ,-110.2300619803116   ,-235.77311282417458 ,-114.00118095297233 ,-460.0043157700791  , 71.46286307840977   ,153.33478951891914   ,123.77728266700677   ,-4.6825536492576233e-07 ,1.5052475649188537e-07  ,1.2563135991383224e-06  ,      0.0 ,      0.0 ,      0.0 ,1.0887082660346853e-06  ,-1.4064388436359593e-06 ,      0.0 ,-3.177305612205553e-07  ,1.2973158296790367e-06 ,0.41303426031042745  ,0.05156973383836055     ,-2.9717833543984837e-06 ,-6.861729870279815e-07  ,4.1358626628895565e-06 ,18.415697546986852     ,0.0 ,38.4208343694217      ,2.9886070590212546      ,        0.0 ,        0.0 , 0.0
 0.0 ,0.0 ,           0.0 ,            0.0 ,            0.0 ,            0.0 ,              0.0 ,                   0.0 , 340.0 ,89.76025 ,-14.82729 ,           0.0 ,           0.0 ,       0.0 ,37.62118       ,-18.5894    ,-0.02615871      ,0.001863304      ,                 0.0 ,             0.0 ,             0.0 ,                 0.0 ,                 0.0 ,        0.0 ,1.4889551342971918     ,            0.0 ,            0.0 ,            0.0 ,              0.0 ,                   0.0 ,  0.0 ,0.0 , 257.5258517698608   ,1.0                ,0.0 ,-141.552518783482   ,-261.9685996464971  ,-11.623646786651534     ,-133.1076182840235  ,          0.0 ,          0.0 ,-140.42203109299328 ,-263.0990896909903  ,-133.1076182840235  ,-536.628639068007   , 73.03458278881082   ,178.87619701794978  ,126.49961034207331   ,-136.60983874672797   ,-257.0259196097431  ,-11.623646786651534     ,-128.16493824726948 ,          0.0 ,          0.0 ,-135.47935105623924  ,-258.1564096542363  ,-128.16493824726948 ,-521.8006462355784  , 73.03458278881082   ,173.93351698119577   ,126.49961034207331   ,6.313424878531786e-07   ,-1.3033784326475846e-07 ,1.7826900787396613e-06  ,      0.0 ,      0.0 ,      0.0 ,1.2209667397564061e-06  ,-7.199622866333237e-07  ,      0.0 ,5.01004455477087e-07    ,9.811832103525392e-07  ,0.3353104833598388   ,0.09354609482637583     ,-1.3592069281802734e-05 ,-2.0687871397639937e-06 ,5.5405190686990096e-06 ,23.683750724721722     ,0.0 ,13.323260342118084    ,2.4745878083992987      ,        0.0 ,        0.0 , 0.0
 0.0 ,0.0 ,           0.0 ,            0.0 ,            0.0 ,            0.0 ,              0.0 ,                   0.0 , 341.0 ,91.9595  ,-14.65195 ,           0.0 ,           0.0 ,       0.0 ,39.28632       ,-18.58059   ,0.02959194       ,0.002762005      ,                 0.0 ,             0.0 ,             0.0 ,                 0.0 ,                 0.0 ,        0.0 ,1.0128009621165137     ,            0.0 ,            0.0 ,            0.0 ,              0.0 ,                   0.0 ,  0.0 ,0.0 , 258.8067065200553   ,1.0                ,0.0 ,-136.92011725804153 ,-256.73475108016703 ,-4.195387383980304      ,-130.4056270835215  ,          0.0 ,          0.0 ,-136.77307764619684 ,-256.8817906920117  ,-130.4056270835215  ,-524.06049542173    , 71.25489383377791   ,174.6868482452541   ,123.41706194270458   ,-131.96946124846735   ,-251.78409507059288 ,-4.195387383980304      ,-125.45492175991515 ,          0.0 ,          0.0 ,-131.8224216366227   ,-251.93113468243757 ,-125.45492175991515 ,-509.20852858126443 , 71.25489383377791   ,169.73614292164774   ,123.41706194270458   ,-6.04162562203085e-07   ,3.600494352629645e-07   ,1.0815060058193991e-06  ,      0.0 ,      0.0 ,      0.0 ,6.033204779271612e-07   ,-8.474330498012985e-07  ,      0.0 ,-2.4411292493096417e-07 ,7.28816466431648e-07   ,0.3585047744455245   ,0.048575141855592543    ,-8.563445351992466e-06  ,-2.490300211138218e-06  ,1.4799493808071177e-05 ,14.511735390659371     ,0.0 ,25.104070237709955    ,2.462921132917501       ,        0.0 ,        0.0 , 0.0
 0.0 ,0.0 ,           0.0 ,            0.0 ,            0.0 ,            0.0 ,              0.0 ,                   0.0 , 342.0 ,94.15248 ,-14.47313 ,           0.0 ,           0.0 ,       0.0 ,40.96887       ,-18.57002   ,0.03093155       ,-0.001821239     ,                 0.0 ,             0.0 ,             0.0 ,                 0.0 ,                 0.0 ,        0.0 ,1.4762591073408433     ,            0.0 ,            0.0 ,            0.0 ,              0.0 ,                   0.0 ,  0.0 ,0.0 , 261.6269910069982   ,1.0                ,0.0 ,-133.42043193246377 ,-258.08193817786355 ,-2.3697804099347146     ,-130.10561134551068 ,          0.0 ,          0.0 ,-133.3458369460837  ,-258.1565331642437  ,-130.10561134551068 ,-521.6079841673812  , 73.02204425735394   ,173.8693285833691   ,126.47786297713166   ,-128.4677096013085    ,-253.12921584670835 ,-2.3697804099347146     ,-125.15289014317247 ,          0.0 ,          0.0 ,-128.39311461492846  ,-253.20381083308843 ,-125.15289014317247 ,-506.7498155911893  , 73.02204425735394   ,168.91660466948773   ,126.47786297713166   ,4.374795447330766e-07   ,-2.0512300440361093e-07 ,1.733171003532263e-06   ,      0.0 ,      0.0 ,      0.0 ,1.0404103368350091e-06  ,-8.08054042548728e-07   ,      0.0 ,2.323565403294657e-07   ,9.266630963552899e-07  ,0.5591383521154023   ,0.13251071670442285     ,-2.770254691057398e-05  ,-1.2348217945763277e-05 ,0.0                    ,3.0597167462210025e-05 ,0.0 ,40.245841453113904    ,4.952719085555968       ,        0.0 ,        0.0 , 0.0
 0.0 ,0.0 ,           0.0 ,            0.0 ,            0.0 ,            0.0 ,              0.0 ,                   0.0 , 343.0 ,98.73966 ,-14.78974 ,           0.0 ,           0.0 ,       0.0 ,37.51871       ,-18.54161   ,0.002281463      ,0.0001718511     ,                 0.0 ,             0.0 ,             0.0 ,                 0.0 ,                 0.0 ,        0.0 ,2.855905785526544      ,            0.0 ,            0.0 ,            0.0 ,              0.0 ,                   0.0 ,  0.0 ,0.0 , 221.99080362079837  ,1.0                ,0.0 ,-134.79137531380923 ,-268.01389429840367 ,-0.08695156638852093    ,-134.14497653246087 ,          0.0 ,          0.0 ,-134.79083836274543 ,-268.0144588543699  ,-134.14497653246087 ,-536.9502987740003  , 77.10444225254541   ,178.98342458319206  ,133.54885304620927   ,-129.84770361836217   ,-263.07024494920597 ,-0.08695156638852093    ,-129.20132718326317 ,          0.0 ,          0.0 ,-129.847139062396    ,-263.07075687584563 ,-129.20132718326317 ,-522.1192757508313  , 77.10444225254541   ,174.03977523399433   ,133.54885304620927   ,-6.350239130540114e-07  ,-4.1247525222191674e-07 ,4.947455073095189e-07   ,      0.0 ,      0.0 ,      0.0 ,6.78992154995741e-07    ,-1.7264910173981015e-06 ,      0.0 ,-1.04749902029034e-06   ,1.3447226639700386e-06 ,0.23215769256093274  ,0.04121613661633761     ,-2.7346817697953312e-05 ,-6.59206757540634e-06   ,2.3168635034891838e-05 ,31.85437322741086      ,0.0 ,5.951378260836359     ,1.0981275411133666      ,        0.0 ,        0.0 , 0.0
 0.0 ,0.0 ,           0.0 ,            0.0 ,            0.0 ,            0.0 ,              0.0 ,                   0.0 , 344.0 ,100.85   ,-14.94905 ,           0.0 ,           0.0 ,       0.0 ,35.74621       ,-18.52367   ,0.001030539      ,0.0008874887     ,                 0.0 ,             0.0 ,             0.0 ,                 0.0 ,                 0.0 ,        0.0 ,0.5051219771249362     ,            0.0 ,            0.0 ,            0.0 ,              0.0 ,                   0.0 ,  0.0 ,0.0 , 222.23290508670638  ,1.0                ,0.0 ,-136.64326432781093 ,-272.45349328292633 ,-0.14548531000477063    ,-136.2339300764586  ,          0.0 ,          0.0 ,-136.64291338486336 ,-272.4538442258739  ,-136.2339300764586  ,-545.3307122963902  , 78.52996539775596   ,181.77688747703232  ,136.017898252824     ,-131.71257290625425   ,-267.52287725217525 ,-0.14548531000477063    ,-131.3032887896087  ,          0.0 ,          0.0 ,-131.71222196330663  ,-267.52325280431717 ,-131.3032887896087  ,-530.5387635572325  , 78.52996539775596   ,176.84627144628126   ,136.017898252824     ,-4.254761116987962e-07  ,2.2943443344958232e-07  ,8.563575336748063e-07   ,      0.0 ,      0.0 ,      0.0 ,4.410189674959191e-07   ,-6.370608477939238e-07  ,      0.0 ,-1.9604167824921387e-07 ,5.420024480407593e-07  ,0.47146241257740273  ,0.11178947631177863     ,-6.879150839305529e-05  ,-2.331694427667186e-05  ,4.639674165996706e-05  ,6.597455437792165      ,0.0 ,28.985953758288005    ,3.6903594000515403      ,        0.0 ,        0.0 , 0.0
 0.0 ,0.0 ,           0.0 ,            0.0 ,            0.0 ,            0.0 ,              0.0 ,                   0.0 , 345.0 ,102.8836 ,-14.95805 ,           0.0 ,           0.0 ,       0.0 ,35.41708       ,-18.49976   ,0.001035201      ,0.0002664563     ,                 0.0 ,             0.0 ,             0.0 ,                 0.0 ,                 0.0 ,        0.0 ,2.15561439392967       ,            0.0 ,            0.0 ,            0.0 ,              0.0 ,                   0.0 ,  0.0 ,0.0 , 239.90347725844452  ,1.0                ,0.0 ,-137.26908673505739 ,-273.29302930085686 ,0.08815007536557282     ,-136.71625341380698 ,          0.0 ,          0.0 ,-137.26878990374396 ,-273.29332613217025 ,-136.71625341380698 ,-547.2783694497211  , 78.69412804904735   ,182.42610019086666  ,136.30221021241437   ,-132.33729148759448   ,-268.36133405339393 ,0.08815007536557282     ,-131.78449137989838 ,          0.0 ,          0.0 ,-132.337012308396    ,-268.3616308847073  ,-131.78449137989838 ,-532.4831345730017  , 78.69412804904735   ,177.49438938196437   ,136.30221021241437   ,-7.962827146999434e-07  ,5.427319277858308e-07   ,3.387052183662494e-06   ,      0.0 ,      0.0 ,      0.0 ,2.1015069888715135e-06  ,-2.3550583453814216e-06 ,      0.0 ,-2.5355069865353794e-07 ,2.241418653039435e-06  ,0.23777151679496838  ,0.020556990573979868    ,-0.00015054203514515505 ,-8.281493252744969e-05  ,0.0001380737769838083  ,26.811485115686708     ,0.0 ,7.49837129529205      ,0.8765544252891183      ,        0.0 ,        0.0 , 0.0
 0.0 ,0.0 ,           0.0 ,            0.0 ,            0.0 ,            0.0 ,              0.0 ,                   0.0 , 346.0 ,104.8982 ,-14.90648 ,           0.0 ,           0.0 ,       0.0 ,35.60493       ,-18.46697   ,0.0002862511     ,0.0002381213     ,                 0.0 ,             0.0 ,             0.0 ,                 0.0 ,                 0.0 ,        0.0 ,2.353751760362453      ,            0.0 ,            0.0 ,            0.0 ,              0.0 ,                   0.0 ,  0.0 ,0.0 , 287.23249259978445  ,1.0                ,0.0 ,-137.0562892788937  ,-272.3889657461124  ,0.06464251121748638     ,-136.2554648115538  ,          0.0 ,          0.0 ,-137.05510153720732 ,-272.3901534877988  ,-136.2554648115538  ,-545.7007198365599  , 78.36805670093922   ,181.90020661218662  ,135.73745146111784   ,-132.24199672795555   ,-267.5747555075862  ,0.06464251121748638     ,-131.44123892323185 ,          0.0 ,          0.0 ,-132.24087564888538  ,-267.5759432492726  ,-131.44123892323185 ,-531.2580578213899  , 78.36805670093922   ,177.08599637366046   ,135.73745146111784   ,-1.1686884957419105e-06 ,-6.305253365727309e-07  ,3.100106156220216e-06   ,      0.0 ,      0.0 ,      0.0 ,1.4218796703943845e-06  ,-3.221093938108505e-06  ,      0.0 ,-1.7992140296292009e-06 ,2.5288915406022513e-06 ,0.5027867778008318   ,0.07764991385335682     ,-0.00018945731314696233 ,-0.00031274779730300535 ,0.00029205062259259816 ,5.412422640563331      ,0.0 ,28.317346091966797    ,3.310278199339321       ,        0.0 ,        0.0 , 0.0
 0.0 ,0.0 ,           0.0 ,            0.0 ,            0.0 ,            0.0 ,              0.0 ,                   0.0 , 347.0 ,106.9266 ,-14.81557 ,           0.0 ,           0.0 ,       0.0 ,36.03546       ,-18.41911   ,1.361773e-05     ,0.0007512202     ,                 0.0 ,             0.0 ,             0.0 ,                 0.0 ,                 0.0 ,        0.0 ,1.2272070723105963     ,            0.0 ,            0.0 ,            0.0 ,              0.0 ,                   0.0 ,  0.0 ,0.0 , 294.5600234195042   ,1.0                ,0.0 ,-136.55923438173124 ,-271.0499893729327  ,0.19135980502504873     ,-135.63510665187408 ,          0.0 ,          0.0 ,-136.55837923187926 ,-271.05084452278464 ,-135.63510665187408 ,-543.2443824446841  , 77.91753288212172   ,181.08146165504115  ,134.95713639349478   ,-131.77404049585718   ,-266.264870245912   ,0.19135980502504873     ,-130.84998752485336 ,          0.0 ,          0.0 ,-131.7732601048586   ,-266.26569859876446 ,-130.84998752485336 ,-528.8889982666225  , 77.91753288212172   ,176.2963425280205    ,134.95713639349478   ,-1.3047828374925036e-06 ,-1.6861380437450958e-06 ,2.9220273814017726e-06  ,      0.0 ,      0.0 ,      0.0 ,6.316698280177873e-07   ,-3.622591014887532e-06  ,      0.0 ,-2.990920262811131e-06  ,2.4622758420620383e-06 ,0.5541773529754331   ,0.08290782118363453     ,-0.0001762974642720353  ,-0.00030501116736267043 ,0.00035396619068964885 ,2.0212863177403353     ,0.0 ,33.39013220243209     ,3.7146641087654966      ,        0.0 ,        0.0 , 0.0
 0.0 ,0.0 ,           0.0 ,            0.0 ,            0.0 ,            0.0 ,              0.0 ,                   0.0 , 348.0 ,113.3578 ,-14.99613 ,           0.0 ,           0.0 ,       0.0 ,31.16769       ,-18.1129    ,-0.007574803     ,-0.0002143788    ,                 0.0 ,             0.0 ,             0.0 ,                 0.0 ,                 0.0 ,        0.0 ,1.0132072349189296     ,            0.0 ,            0.0 ,            0.0 ,              0.0 ,                   0.0 ,  0.0 ,0.0 , 277.13028267970975  ,1.0                ,0.0 ,-138.82667517099233 ,-274.6913392700023  ,-0.03395032193016266    ,-137.62007930219613 ,          0.0 ,          0.0 ,-138.82622108510986 ,-274.69179183914275 ,-137.62007930219613 ,-551.1380922264487  , 78.79253110355015   ,183.71269835463806  ,136.47267130417524   ,-133.93711349291382   ,-269.80187607518184 ,-0.03395032193016266    ,-132.73056980122132 ,          0.0 ,          0.0 ,-133.93670874666958  ,-269.80228233816797 ,-132.73056980122132 ,-536.4695087089551  , 78.79253110355015   ,178.82318601619784   ,136.47267130417524   ,-1.9540577949669763e-06 ,1.8432377470441008e-06  ,-2.054037538683454e-07  ,      0.0 ,      0.0 ,      0.0 ,1.8460134282641614e-06  ,-1.9568334761870367e-06 ,      0.0 ,-1.1081979462106666e-07 ,1.9016927120482787e-06 ,0.4080375986639375   ,0.07059711868819812     ,-0.005442840024945029   ,-0.000820298484841216   ,0.005503670775573181   ,9.61680413644675       ,0.0 ,16.57467023016751     ,2.4400638014440967      ,        0.0 ,        0.0 , 0.0
 0.0 ,0.0 ,           0.0 ,            0.0 ,            0.0 ,            0.0 ,              0.0 ,                   0.0 , 349.0 ,115.3629 ,-15.14821 ,           0.0 ,           0.0 ,       0.0 ,28.01605       ,-17.94982   ,-0.003074738     ,0.0006478356     ,                 0.0 ,             0.0 ,             0.0 ,                 0.0 ,                 0.0 ,        0.0 ,1.941887166302791      ,            0.0 ,            0.0 ,            0.0 ,              0.0 ,                   0.0 ,  0.0 ,0.0 , 280.3299134752059   ,1.0                ,0.0 ,-139.65621180247177 ,-278.03845810428584 ,-0.07074827780885869    ,-139.03708724737896 ,          0.0 ,          0.0 ,-139.65585453836752 ,-278.03881536839003 ,-139.03708724737896 ,-556.7317584900684  , 80.07510975523482   ,185.57723612439315  ,138.69417093376777   ,-134.76198297575246   ,-273.14428206631925 ,-0.07074827780885869    ,-134.14285975659152 ,          0.0 ,          0.0 ,-134.76167716446906  ,-273.14458787760265 ,-134.14285975659152 ,-542.0491234627314  , 80.07510975523482   ,180.6830587504947    ,138.69417093376777   ,4.8534167971509724e-06  ,-5.488986862874361e-06  ,9.169853460384762e-07   ,      0.0 ,      0.0 ,      0.0 ,4.8741141509450875e-06  ,-5.509684256746432e-06  ,      0.0 ,-6.355711506748136e-07  ,5.203376577281415e-06  ,0.4023521219658161   ,0.08528384416929231     ,-0.000692843170863935   ,-0.0009653646260896789  ,0.0003452780404674886  ,10.499079771718078     ,0.0 ,17.27697669560577     ,2.5911504850779825      ,        0.0 ,        0.0 , 0.0
 0.0 ,0.0 ,           0.0 ,            0.0 ,            0.0 ,            0.0 ,              0.0 ,                   0.0 , 350.0 ,117.3126 ,-15.1706  ,           0.0 ,           0.0 ,       0.0 ,25.03439       ,-17.67404   ,-0.0004299577    ,0.0001062993     ,                 0.0 ,             0.0 ,             0.0 ,                 0.0 ,                 0.0 ,        0.0 ,1.9934971659900769     ,            0.0 ,            0.0 ,            0.0 ,              0.0 ,                   0.0 ,  0.0 ,0.0 , 278.199018084425    ,1.0                ,0.0 ,-139.41330043657607 ,-277.5880571962594  ,-0.061237040843644196   ,-138.96292446828383 ,          0.0 ,          0.0 ,-139.41324936674485 ,-277.5881082660906  ,-138.96292446828383 ,-555.9642821011192  , 79.90670019911926   ,185.321443677096    ,138.402425908401     ,-134.52240254696846   ,-272.69720946922257 ,-0.061237040843644196   ,-134.07207674124706 ,          0.0 ,          0.0 ,-134.5223514771372   ,-272.69726053905384 ,-134.07207674124706 ,-541.291688757438   , 79.90670019911926   ,180.43059595005923   ,138.402425908401     ,7.145859571629602e-06   ,-5.4797330751118296e-06 ,7.998117494061934e-07   ,      0.0 ,      0.0 ,      0.0 ,7.158542094292769e-06   ,-5.492415597774996e-06  ,      0.0 ,1.6661274560686792e-06  ,6.344249134082651e-06  ,0.20526315709462378  ,-0.0015326287229182878  ,-0.002331413856499161   ,0.0                     ,0.0029892008310976664  ,24.428330917305605     ,0.0 ,0.0                   ,0.0                     ,        0.0 ,        0.0 , 0.0
 0.0 ,0.0 ,           0.0 ,            0.0 ,            0.0 ,            0.0 ,              0.0 ,                   0.0 , 351.0 ,119.2378 ,-15.14798 ,           0.0 ,           0.0 ,       0.0 ,20.8021        ,-17.22819   ,0.001532049      ,0.0001899742     ,                 0.0 ,             0.0 ,             0.0 ,                 0.0 ,                 0.0 ,        0.0 ,3.497918203232947      ,            0.0 ,            0.0 ,            0.0 ,              0.0 ,                   0.0 ,  0.0 ,0.0 , 272.73577205083274  ,1.0                ,0.0 ,-138.03290373223106 ,-277.1769319604399  ,0.0220145212741042      ,-138.4541261896536  ,          0.0 ,          0.0 ,-138.0328535240514  ,-277.1769821686196  ,-138.4541261896536  ,-553.6639618823247  , 80.2135703287382    ,184.55467081798733  ,138.93399080503448   ,-133.1958454864471    ,-272.33987449447307 ,0.0220145212741042      ,-133.61706794386967 ,          0.0 ,          0.0 ,-133.19579527826744  ,-272.3399741310153  ,-133.61706794386967 ,-539.1527879247898  , 80.2135703287382    ,179.7176125722034    ,138.93399080503448   ,1.7119800916251563e-05  ,-1.1613358997511354e-05 ,2.754820341593673e-06   ,      0.0 ,      0.0 ,      0.0 ,1.718854495203632e-05   ,-1.1682093069641882e-05 ,      0.0 ,5.506449387052779e-06   ,1.4524284468186422e-05 ,0.2521019816680518   ,-0.003266628193037297   ,-0.0022819510185360862  ,0.0                     ,0.004035964582566727   ,19.3572121875769       ,0.0 ,0.0                   ,0.0                     ,        0.0 ,        0.0 , 0.0
 0.0 ,0.0 ,           0.0 ,            0.0 ,            0.0 ,            0.0 ,              0.0 ,                   0.0 , 352.0 ,78.96615 ,-10.56463 ,           0.0 ,           0.0 ,       0.0 ,80.53507       ,-18.61814   ,0.007320835      ,-0.01409985      ,                 0.0 ,             0.0 ,             0.0 ,                 0.0 ,                 0.0 ,        0.0 ,3.1418636364367956     ,            0.0 ,            0.0 ,            0.0 ,              0.0 ,                   0.0 ,  0.0 ,0.0 , 258.81063017916557  ,1.0                ,0.0 ,-80.09529406978338  ,-200.55064109568508 ,3.0583373421529694      ,-96.59225090079487  ,          0.0 ,          0.0 ,-80.00414208697336  ,-200.64177739035512 ,-96.59225090079487  ,-377.23816228828883 , 65.39056762886071   ,125.74604936730839  ,113.25978178141236   ,-75.10473828908918    ,-195.5600805539582  ,3.0583373421529694      ,-91.6017037014643   ,          0.0 ,          0.0 ,-75.01359297747733   ,-195.65121684862822 ,-91.6017037014643   ,-362.26650446827165 , 65.39056762886071   ,120.75551263074503   ,113.25978178141236   ,-3.3740971202247604e-06 ,6.193612253719758e-07   ,5.331541368714049e-07   ,      0.0 ,      0.0 ,      0.0 ,6.527729825382374e-07   ,-3.4075092106189318e-06 ,      0.0 ,-2.754735880334422e-06  ,2.1806394765236417e-06 ,0.2710046825765251   ,0.0192844189860682      ,-5.68560382681764e-07   ,-7.103256986851678e-08  ,8.556880326051444e-07  ,53.2514572965402       ,0.0 ,28.680836712062515    ,1.661605386159978       ,        0.0 ,        0.0 , 0.0
 0.0 ,0.0 ,           0.0 ,            0.0 ,            0.0 ,            0.0 ,              0.0 ,                   0.0 , 353.0 ,77.56245 ,-11.38418 ,           0.0 ,           0.0 ,       0.0 ,72.38425       ,-18.62261   ,0.1247006        ,-0.002401494     ,                 0.0 ,             0.0 ,             0.0 ,                 0.0 ,                 0.0 ,        0.0 ,3.140183397994847      ,            0.0 ,            0.0 ,            0.0 ,              0.0 ,                   0.0 ,  0.0 ,0.0 , 166.92068654162242  ,1.0                ,0.0 ,-90.82933283311883  ,-217.61618728678394 ,7.2298826541596615      ,-105.4964073243419  ,          0.0 ,          0.0 ,-90.37354101677285  ,-218.07196837327257 ,-105.4964073243419  ,-413.9419399839346  , 69.78943997011734   ,137.9806175765739   ,120.87884179827118   ,-85.84384846465198    ,-212.63067777158903 ,7.2298826541596615      ,-100.51089271083211 ,          0.0 ,          0.0 ,-85.388056648306     ,-213.08647635733342 ,-100.51089271083211 ,-398.9854289376056  , 69.78943997011734   ,132.99513830642192   ,120.87884179827118   ,-3.22058579863957e-06   ,5.012085719589446e-07   ,7.258862763160028e-07   ,      0.0 ,      0.0 ,      0.0 ,5.670481997361098e-07   ,-3.286425617004474e-06  ,      0.0 ,-2.719377563982177e-06  ,2.0810286132680372e-06 ,0.5089416332427146   ,0.04073702086328907     ,-6.739335175876201e-07  ,-1.662104715619994e-07  ,1.4424831858123877e-06 ,14.169993682996937     ,0.0 ,59.63418013195544     ,3.481793089699838       ,        0.0 ,        0.0 , 0.0
 0.0 ,0.0 ,           0.0 ,            0.0 ,            0.0 ,            0.0 ,              0.0 ,                   0.0 , 354.0 ,75.35736 ,-11.32348 ,           0.0 ,           0.0 ,       0.0 ,73.04513       ,-18.62799   ,0.1298878        ,-0.01414215      ,                 0.0 ,             0.0 ,             0.0 ,                 0.0 ,                 0.0 ,        0.0 ,2.4574814072121596     ,            0.0 ,            0.0 ,            0.0 ,              0.0 ,                   0.0 ,  0.0 ,0.0 , 262.8646909610676   ,1.0                ,0.0 ,-93.54399441370526  ,-212.52611112789907 ,10.405938918279205      ,-103.76837614562538 ,          0.0 ,          0.0 ,-92.55478060379316  ,-213.51535172021795 ,-103.76837614562538 ,-409.8385031131552  , 66.85361612195402   ,136.6128343710517   ,115.7938673613649    ,-88.55628030692097    ,-207.5383720118537  ,10.405938918279205      ,-98.78066203884106  ,          0.0 ,          0.0 ,-87.56704819775257   ,-208.5276047874998  ,-98.78066203884106  ,-394.87537081871915 , 66.85361612195402   ,131.62514169019283   ,115.7938673613649    ,-1.9299116257501744e-06 ,3.493527981062474e-07   ,1.213981218942382e-06   ,      0.0 ,      0.0 ,      0.0 ,5.461845726511678e-07   ,-2.126743510514347e-06  ,      0.0 ,-1.5805587785428299e-06 ,1.4122642813477404e-06 ,0.6459181049010772   ,0.06938245616184409     ,-1.944107336210347e-06  ,-2.9343248282060934e-07 ,0.0                    ,1.9796994612868773e-06 ,0.0 ,73.26517221605803     ,4.9877177497680645      ,        0.0 ,        0.0 , 0.0
 0.0 ,0.0 ,           0.0 ,            0.0 ,            0.0 ,            0.0 ,              0.0 ,                   0.0 , 355.0 ,73.35887 ,-11.6231  ,           0.0 ,           0.0 ,       0.0 ,70.0963        ,-18.63273   ,0.1165182        ,-0.004620921     ,                 0.0 ,             0.0 ,             0.0 ,                 0.0 ,                 0.0 ,        0.0 ,2.054702831605178      ,            0.0 ,            0.0 ,            0.0 ,              0.0 ,                   0.0 ,  0.0 ,0.0 , 271.96307227989575  ,1.0                ,0.0 ,-102.31263214255574 ,-216.43067723910318 ,12.03125084862903       ,-106.97637851997101 ,          0.0 ,          0.0 ,-101.03976814413218 ,-217.70355984347566 ,-106.97637851997101 ,-425.71969720460436 , 65.71913541605271   ,141.90655047990603  ,113.82888089317399   ,-97.32567858221002    ,-211.4436755951031  ,12.03125084862903       ,-101.98943891408697 ,          0.0 ,          0.0 ,-96.05279348972982   ,-212.71661093461717 ,-101.98943891408697 ,-410.7588504780289  , 65.71913541605271   ,136.91960157104754   ,113.82888089317399   ,-1.6284694046625794e-06 ,2.084629929792715e-07   ,1.3022006931967334e-06  ,      0.0 ,      0.0 ,      0.0 ,4.447511331522567e-07   ,-1.864757323521127e-06  ,      0.0 ,-1.4200060958391536e-06 ,1.2255524485172602e-06 ,0.3628187653059469   ,0.04267075499912325     ,-1.665347480555014e-06  ,-1.202707306583681e-07  ,2.7643979353135663e-07 ,37.31728359764548      ,0.0 ,33.44913027125103     ,2.665719515496504       ,        0.0 ,        0.0 , 0.0
 0.0 ,0.0 ,           0.0 ,            0.0 ,            0.0 ,            0.0 ,              0.0 ,                   0.0 , 356.0 ,71.4085  ,-11.78186 ,           0.0 ,           0.0 ,       0.0 ,68.55333       ,-18.63719   ,0.09399262       ,-0.005568726     ,                 0.0 ,             0.0 ,             0.0 ,                 0.0 ,                 0.0 ,        0.0 ,1.5047601941816389     ,            0.0 ,            0.0 ,            0.0 ,              0.0 ,                   0.0 ,  0.0 ,0.0 , 274.86145324198424  ,1.0                ,0.0 ,-110.03527286180844 ,-216.2632412200362  ,11.374668709956095      ,-108.37096974123207 ,          0.0 ,          0.0 ,-108.79800625717898 ,-217.50057512020877 ,-108.37096974123207 ,-434.66954254274305 , 62.909326431012154  ,144.88984783159398  ,108.96211582176306   ,-105.0491628836051    ,-211.27713918429941 ,11.374668709956095      ,-103.38482779873168 ,          0.0 ,          0.0 ,-103.81184945748441  ,-212.5144226084526  ,-103.38482779873168 ,-419.71108500747454 , 62.909326431012154  ,139.9036953198378    ,108.96211582176306   ,-2.092172196736139e-06  ,2.8676185600943004e-07  ,1.4673678619208444e-06  ,      0.0 ,      0.0 ,      0.0 ,5.068963619576227e-07   ,-2.3123065588529085e-06 ,      0.0 ,-1.8054102393084878e-06 ,1.5037773894923366e-06 ,0.31018959582393446  ,0.042490030494062865    ,-1.2224472946307998e-06 ,-6.041358579372092e-08  ,2.94323047081056e-07   ,39.73138716341347      ,0.0 ,30.353350627210187    ,2.514751490634807       ,        0.0 ,        0.0 , 0.0
 0.0 ,0.0 ,           0.0 ,            0.0 ,            0.0 ,            0.0 ,              0.0 ,                   0.0 , 357.0 ,69.50889 ,-12.28741 ,           0.0 ,           0.0 ,       0.0 ,63.53914       ,-18.64133   ,0.05370011       ,-0.0001050468    ,                 0.0 ,             0.0 ,             0.0 ,                 0.0 ,                 0.0 ,        0.0 ,1.9099002840877661     ,            0.0 ,            0.0 ,            0.0 ,              0.0 ,                   0.0 ,  0.0 ,0.0 , 314.9871095158399   ,1.0                ,0.0 ,-118.89249206198322 ,-223.0584205412486  ,11.156369737901224      ,-112.87255430735492 ,          0.0 ,          0.0 ,-117.6198099505423  ,-224.3311793932575  ,-112.87255430735492 ,-454.8235403628177  , 63.03500260050303   ,151.60786615649195  ,109.17981486486599   ,-113.90858922950167   ,-218.0745220932164  ,11.156369737901224      ,-107.88858240709177 ,          0.0 ,          0.0 ,-112.63583805027915  ,-219.34720091632028 ,-107.88858240709177 ,-439.8716268542529  , 63.03500260050303   ,146.62389864067816   ,109.17981486486599   ,-1.9572959647289193e-06 ,2.0928673128867874e-07  ,1.7369897731164136e-06  ,      0.0 ,      0.0 ,      0.0 ,5.623572890910938e-07   ,-2.3103663773369517e-06 ,      0.0 ,-1.7480091955937276e-06 ,1.5284669380105212e-06 ,0.49592254605940844  ,0.07328234584588049     ,-1.822258816576288e-06  ,-9.175114403410437e-08  ,1.0072247548552779e-07 ,10.15973228666973      ,0.0 ,54.4501485657044      ,4.436707304963671       ,        0.0 ,        0.0 , 0.0
 0.0 ,0.0 ,           0.0 ,            0.0 ,            0.0 ,            0.0 ,              0.0 ,                   0.0 , 358.0 ,67.47309 ,-12.49219 ,           0.0 ,           0.0 ,       0.0 ,61.53237       ,-18.64543   ,0.02852049       ,-0.0004235891    ,                 0.0 ,             0.0 ,             0.0 ,                 0.0 ,                 0.0 ,        0.0 ,1.5177437559962272     ,            0.0 ,            0.0 ,            0.0 ,              0.0 ,                   0.0 ,  0.0 ,0.0 , 254.2003113625948   ,1.0                ,0.0 ,-122.72507675307214 ,-225.17752132077078 ,6.787737475641401       ,-114.60898346233935 ,          0.0 ,          0.0 ,-122.20412287431849 ,-225.69849142094128 ,-114.60898346233935 ,-462.51159775759913 , 62.06967425430737   ,154.17054391849842  ,107.50782859220223   ,-117.74822615905586   ,-220.2006707267545  ,6.787737475641401       ,-109.63213442338571 ,          0.0 ,          0.0 ,-117.22725605888542  ,-220.72162460550817 ,-109.63213442338571 ,-447.5810150877793  , 62.06967425430737   ,149.19367710306537   ,107.50782859220223   ,-2.0496349012563762e-06 ,1.5963332414633087e-07  ,1.314175221649824e-06   ,      0.0 ,      0.0 ,      0.0 ,4.7487670777715516e-07  ,-2.364878138216639e-06  ,      0.0 ,-1.8900011313167354e-06 ,1.52436142690008e-06   ,0.5414603274751257   ,0.08857015570870111     ,-5.606515264676777e-06  ,-3.0348484986151495e-08 ,0.0                    ,5.6076941752992985e-06 ,0.0 ,63.00173476190353     ,4.976869140843105       ,        0.0 ,        0.0 , 0.0
 0.0 ,0.0 ,           0.0 ,            0.0 ,            0.0 ,            0.0 ,              0.0 ,                   0.0 , 359.0 ,65.46161 ,-12.64899 ,           0.0 ,           0.0 ,       0.0 ,60.00471       ,-18.64946   ,0.01529464       ,0.0001698223     ,                 0.0 ,             0.0 ,             0.0 ,                 0.0 ,                 0.0 ,        0.0 ,0.7519789613413694     ,            0.0 ,            0.0 ,            0.0 ,              0.0 ,                   0.0 ,  0.0 ,0.0 , 244.8158168958475   ,1.0                ,0.0 ,-123.8873776077135  ,-228.74832716002652 ,3.9112863213289697      ,-116.24398782246655 ,          0.0 ,          0.0 ,-123.73388176914756 ,-228.90182299859248 ,-116.24398782246655 ,-468.87969259020656 , 63.00622838265352   ,156.2932308634022   ,109.12997414434511   ,-118.91427548854567   ,-223.7752250408587  ,3.9112863213289697      ,-111.27088570329872 ,          0.0 ,          0.0 ,-118.76077964997972  ,-223.92872087942462 ,-111.27088570329872 ,-453.96038623270306 , 63.00622838265352   ,151.32012874423435   ,109.12997414434511   ,-1.9707813567121124e-06 ,2.8851115919085484e-07  ,5.990217815569355e-07   ,      0.0 ,      0.0 ,      0.0 ,3.283393632701289e-07   ,-2.010609702000137e-06  ,      0.0 ,-1.6822703515465843e-06 ,1.2663072141845555e-06 ,0.21761656941556806  ,0.018090737206001642    ,-2.0277474597201895e-07 ,-9.901234489464977e-09  ,2.751441814863843e-06  ,42.065920128297186     ,0.0 ,19.503397449291437    ,1.326776204068463       ,        0.0 ,        0.0 , 0.0
 0.0 ,0.0 ,           0.0 ,            0.0 ,            0.0 ,            0.0 ,              0.0 ,                   0.0 , 360.0 ,63.48056 ,-12.79622 ,           0.0 ,           0.0 ,       0.0 ,58.57138       ,-18.65335   ,0.01028493       ,0.0004619348     ,                 0.0 ,             0.0 ,             0.0 ,                 0.0 ,                 0.0 ,        0.0 ,2.719659690582023      ,            0.0 ,            0.0 ,            0.0 ,              0.0 ,                   0.0 ,  0.0 ,0.0 , 245.3343623015109   ,1.0                ,0.0 ,-125.05661605826393 ,-232.74552876945899 ,2.8604514459704324      ,-117.99103066690753 ,          0.0 ,          0.0 ,-124.9785193131184  ,-232.8236007004901  ,-117.99103066690753 ,-475.7931754946304  , 64.3942771739059    ,158.5977334362483   ,111.53416721859668   ,-120.08365068948564   ,-227.77263726541332 ,2.8604514459704324      ,-113.01809011224366 ,          0.0 ,          0.0 ,-120.00557875845453  ,-227.85070919644443 ,-113.01809011224366 ,-460.8743780671426  , 64.3942771739059    ,153.62476806747      ,111.53416721859668   ,-2.7499881257729637e-06 ,4.800765192921543e-07   ,7.42481470687478e-07    ,      0.0 ,      0.0 ,      0.0 ,5.529718341135415e-07   ,-2.8228836449694886e-06 ,      0.0 ,-2.2699116670899406e-06 ,1.8158855608869216e-06 ,0.09487945259731134  ,-5.00728786469541e-06   ,-5.2444988442509494e-08 ,0.0                     ,5.007628457807715e-06  ,60.31700716621515      ,0.0 ,0.0                   ,0.0                     ,        0.0 ,        0.0 , 0.0
 0.0 ,0.0 ,           0.0 ,            0.0 ,            0.0 ,            0.0 ,              0.0 ,                   0.0 , 361.0 ,61.52365 ,-12.94114 ,           0.0 ,           0.0 ,       0.0 ,57.16069       ,-18.65721   ,0.009194745      ,0.0008140823     ,                 0.0 ,             0.0 ,             0.0 ,                 0.0 ,                 0.0 ,        0.0 ,3.506012323704069      ,            0.0 ,            0.0 ,            0.0 ,              0.0 ,                   0.0 ,  0.0 ,0.0 , 245.83917730440947  ,1.0                ,0.0 ,-126.01081805601656 ,-236.421746700511   ,2.5269837122630974      ,-119.5670827186184  ,          0.0 ,          0.0 ,-125.95232436444672 ,-236.48028979084847 ,-119.5670827186184  ,-481.999647475146   , 65.75031208290737   ,160.6665244217238   ,113.88290189619998   ,-121.03889764958049   ,-231.44977787412597 ,2.5269837122630974      ,-114.59508810220785 ,          0.0 ,          0.0 ,-120.98035455924304  ,-231.50832096446345 ,-114.59508810220785 ,-467.0837142271467  , 65.75031208290737   ,155.69455461652012   ,113.88290189619998   ,-2.4348779371066403e-06 ,4.341757878996293e-07   ,8.590906003640574e-07   ,      0.0 ,      0.0 ,      0.0 ,5.155498055853676e-07   ,-2.5162519039675e-06    ,      0.0 ,-2.0007022200332373e-06 ,1.625212294414324e-06  ,0.42795365108841643  ,0.07894802156387347     ,-4.0971538368343564e-06 ,-3.2414823058604346e-08 ,2.2969213098013595e-07 ,18.034159123653914     ,0.0 ,40.04594564083813     ,3.6857486197224327      ,        0.0 ,        0.0 , 0.0
 0.0 ,0.0 ,           0.0 ,            0.0 ,            0.0 ,            0.0 ,              0.0 ,                   0.0 , 362.0 ,59.58261 ,-13.08512 ,           0.0 ,           0.0 ,       0.0 ,55.75924       ,-18.66104   ,0.009892996      ,0.0009942921     ,                 0.0 ,             0.0 ,             0.0 ,                 0.0 ,                 0.0 ,        0.0 ,3.002243199388627      ,            0.0 ,            0.0 ,            0.0 ,              0.0 ,                   0.0 ,  0.0 ,0.0 , 276.71000855359375  ,1.0                ,0.0 ,-127.17092978236425 ,-239.56520093828715 ,2.5493437481876464      ,-120.99339597651675 ,          0.0 ,          0.0 ,-127.11299091427387 ,-239.6231895540285  ,-120.99339597651675 ,-487.7295266971682  , 66.80069113003285   ,162.57650891774213  ,115.70221663348573   ,-122.193263250987     ,-234.58753446296816 ,2.5493437481876464      ,-116.01572950119774 ,          0.0 ,          0.0 ,-122.13532466327479  ,-234.64547305068038 ,-116.01572950119774 ,-472.796477467502   , 66.80069113003285   ,157.59879263871392   ,115.70221663348573   ,-2.0266194141166755e-06 ,4.6932941392580857e-07  ,1.3805569622079855e-06  ,      0.0 ,      0.0 ,      0.0 ,6.493644249437753e-07   ,-2.2066541740411586e-06 ,      0.0 ,-1.5572897992376159e-06 ,1.501402983059369e-06  ,0.5512084692201333   ,0.09268439167335298     ,-4.955928250928427e-06  ,-4.608645463419351e-08  ,0.0                    ,4.956151311487847e-06  ,0.0 ,55.73095529582244     ,4.977682441102604       ,        0.0 ,        0.0 , 0.0
 0.0 ,0.0 ,           0.0 ,            0.0 ,            0.0 ,            0.0 ,              0.0 ,                   0.0 , 363.0 ,57.65104 ,-13.22853 ,           0.0 ,           0.0 ,       0.0 ,54.36317       ,-18.66484   ,0.01212125       ,0.00121714       ,                 0.0 ,             0.0 ,             0.0 ,                 0.0 ,                 0.0 ,        0.0 ,2.9956690828525705     ,            0.0 ,            0.0 ,            0.0 ,              0.0 ,                   0.0 ,  0.0 ,0.0 , 277.0556928849162   ,0.9999999999999999 ,0.0 ,-128.52857653330142 ,-242.0372284123888  ,2.4908130917121696      ,-122.20584304236354 ,          0.0 ,          0.0 ,-128.47389592659587 ,-242.09185944085738 ,-122.20584304236354 ,-492.7716479880538  , 67.48605976015261   ,164.25723237018056  ,116.88930325060296   ,-123.55135600640173   ,-237.06000699664833 ,2.4908130917121696      ,-117.22867163795176 ,          0.0 ,          0.0 ,-123.49672452218408  ,-237.114638480866   ,-117.22867163795176 ,-477.8400846523306  , 67.48605976015261   ,159.28001184328087   ,116.88930325060296   ,-2.2747355954710444e-06 ,5.228363201178588e-07   ,1.13113627382438e-06    ,      0.0 ,      0.0 ,      0.0 ,6.534088177263311e-07   ,-2.405307794879856e-06  ,      0.0 ,-1.7518987288519057e-06 ,1.6163878588972994e-06 ,0.5525106005378759   ,0.09408573245355795     ,-5.073497771361564e-06  ,-3.948924791832061e-08  ,0.0                    ,5.073653398126475e-06  ,0.0 ,54.40672847754256     ,4.977202984338833       ,        0.0 ,        0.0 , 0.0
 0.0 ,0.0 ,           0.0 ,            0.0 ,            0.0 ,            0.0 ,              0.0 ,                   0.0 , 364.0 ,55.724   ,-13.37169 ,           0.0 ,           0.0 ,       0.0 ,52.96936       ,-18.66862   ,0.01444373       ,0.001298065      ,                 0.0 ,             0.0 ,             0.0 ,                 0.0 ,                 0.0 ,        0.0 ,0.5131058065761421     ,            0.0 ,            0.0 ,            0.0 ,              0.0 ,                   0.0 ,  0.0 ,0.0 , 278.54227812306914  ,1.0                ,0.0 ,-129.8928225446138  ,-243.8296406802304  ,2.3034814777411947      ,-123.15343840201352 ,          0.0 ,          0.0 ,-129.84576863678691 ,-243.87664413462116 ,-123.15343840201352 ,-496.8759511734215  , 67.86020670792655   ,165.62533373276182  ,117.53732469389969   ,-124.91634765305662   ,-238.85316536010095 ,2.3034814777411947      ,-118.17701353532024 ,          0.0 ,          0.0 ,-124.86934377009362  ,-238.90016924306394 ,-118.17701353532024 ,-481.9465274553502  , 67.86020670792655   ,160.64880929464078   ,117.53732469389969   ,-1.5341139816390134e-06 ,2.905176270182217e-07   ,-2.8594681586677964e-07 ,      0.0 ,      0.0 ,      0.0 ,3.0213854814759227e-07  ,-1.5457345025694726e-06 ,      0.0 ,-1.2435959026827276e-06 ,9.912325654501739e-07  ,0.3199935212229372   ,0.056237941633486783    ,-1.403039316534172e-06  ,-5.623632897646019e-09  ,5.151835621463372e-07  ,31.932057623085115     ,0.0 ,22.088491895900056    ,2.4828721959012943      ,        0.0 ,        0.0 , 0.0
 0.0 ,0.0 ,           0.0 ,            0.0 ,            0.0 ,            0.0 ,              0.0 ,                   0.0 , 365.0 ,53.79782 ,-13.51495 ,           0.0 ,           0.0 ,       0.0 ,51.5743        ,-18.67238   ,0.01439131       ,0.001829763      ,                 0.0 ,             0.0 ,             0.0 ,                 0.0 ,                 0.0 ,        0.0 ,0.5046032223303187     ,            0.0 ,            0.0 ,            0.0 ,              0.0 ,                   0.0 ,  0.0 ,0.0 , 280.52659751760046  ,1.0                ,0.0 ,-131.4602873907178  ,-245.05746854736378 ,1.7679217867503083      ,-123.91673578082764 ,          0.0 ,          0.0 ,-131.42963714853695 ,-245.08816847510593 ,-123.91673578082764 ,-500.43449171890916 , 67.90369038339112   ,166.81151388198916  ,117.61263605384926   ,-126.48515242725833   ,-240.0823335839043  ,1.7679217867503083      ,-118.9415015921291  ,          0.0 ,          0.0 ,-126.45445249951618  ,-240.11298343870465 ,-118.9415015921291  ,-485.50898799067215 , 67.90369038339112   ,161.83632937885193   ,117.61263605384926   ,-1.5156915145761898e-06 ,2.596799991340844e-07   ,-3.7494826037122134e-07 ,      0.0 ,      0.0 ,      0.0 ,2.7926971938962195e-07  ,-1.535281081513858e-06  ,      0.0 ,-1.2560110112262634e-06 ,9.770429424246033e-07  ,0.32991643505102974  ,0.04007894827892076     ,-5.599281554689548e-07  ,3.8782339627638156e-09  ,1.5073274542178783e-06 ,21.45848531953386      ,0.0 ,31.177967261254754    ,2.4956133853400093      ,        0.0 ,        0.0 , 0.0
 0.0 ,0.0 ,           0.0 ,            0.0 ,            0.0 ,            0.0 ,              0.0 ,                   0.0 , 366.0 ,51.86968 ,-13.65633 ,           0.0 ,           0.0 ,       0.0 ,50.19761       ,-18.67609   ,0.01539838       ,0.0005595024     ,                 0.0 ,             0.0 ,             0.0 ,                 0.0 ,                 0.0 ,        0.0 ,1.9904615978646665     ,            0.0 ,            0.0 ,            0.0 ,              0.0 ,                   0.0 ,  0.0 ,0.0 , 284.97691522421695  ,1.0                ,0.0 ,-133.10328128821195 ,-244.82034310760363 ,0.5569675171237587      ,-124.09103154285343 ,          0.0 ,          0.0 ,-133.09338528574526 ,-244.83023943425624 ,-124.09103154285343 ,-502.014655938669   , 67.26972100453699   ,167.33823515391632  ,116.51457276356474   ,-128.12934046450468   ,-239.84640228389634 ,0.5569675171237587      ,-119.11704024222604 ,          0.0 ,          0.0 ,-128.11944413785204  ,-239.8562487632832  ,-119.11704024222604 ,-487.0927334675472  , 67.26972100453699   ,162.36424480712913   ,116.51457276356474   ,-2.6842105563620357e-06 ,4.737409232052982e-07   ,5.1655666362196095e-08  ,      0.0 ,      0.0 ,      0.0 ,5.315077771209503e-07   ,-2.7419780568830943e-06 ,      0.0 ,-2.2104698280071977e-06 ,1.7571261588451831e-06 ,0.31987459708242927  ,0.05906387412169031     ,-4.632738960161325e-06  ,1.035338972380957e-08   ,6.104179550269032e-07  ,30.462093293645992     ,0.0 ,20.907444498930396    ,2.474792489793928       ,        0.0 ,        0.0 , 0.0
 0.0 ,0.0 ,           0.0 ,            0.0 ,            0.0 ,            0.0 ,              0.0 ,                   0.0 , 367.0 ,49.93669 ,-13.78343 ,           0.0 ,           0.0 ,       0.0 ,48.96323       ,-18.67975   ,-0.00591918      ,0.002748405      ,                 0.0 ,             0.0 ,             0.0 ,                 0.0 ,                 0.0 ,        0.0 ,2.4858365927662414     ,            0.0 ,            0.0 ,            0.0 ,              0.0 ,                   0.0 ,  0.0 ,0.0 , 288.63126194520027  ,1.0                ,0.0 ,-134.5901865738884  ,-246.27836070015445 ,0.4235212460458051      ,-124.92319924850386 ,          0.0 ,          0.0 ,-134.58844523755704 ,-246.28010322218762 ,-124.92319924850386 ,-505.7917477082485  , 67.45296484306094   ,168.59724884084892  ,116.83195418496021   ,-129.61785598069253   ,-241.3060301069586  ,0.4235212460458051      ,-119.95091723896726 ,          0.0 ,          0.0 ,-129.61611345865936  ,-241.30777144328994 ,-119.95091723896726 ,-490.87480332661835 , 67.45296484306094   ,163.62491824765303   ,116.83195418496021   ,-2.9830968824947017e-06 ,4.2168665358245977e-07  ,3.241075029544287e-07   ,      0.0 ,      0.0 ,      0.0 ,4.6231865459607753e-07  ,-3.0237284296555604e-06 ,      0.0 ,-2.561410277957179e-06  ,1.8937360670408363e-06 ,0.10334991903072743  ,-6.215918914485858e-06  ,7.186271299313819e-08   ,0.0                     ,6.216339078241855e-06  ,49.80648598566175      ,0.0 ,0.0                   ,0.0                     ,        0.0 ,        0.0 , 0.0
 0.0 ,0.0 ,           0.0 ,            0.0 ,            0.0 ,            0.0 ,              0.0 ,                   0.0 , 368.0 ,47.99555 ,-13.83088 ,           0.0 ,           0.0 ,       0.0 ,48.52479       ,-18.68336   ,-0.02449661      ,0.0001659502     ,                 0.0 ,             0.0 ,             0.0 ,                 0.0 ,                 0.0 ,        0.0 ,0.9872732720260458     ,            0.0 ,            0.0 ,            0.0 ,              0.0 ,                   0.0 ,  0.0 ,0.0 , 292.0129499589906   ,1.0                ,0.0 ,-135.05772702088373 ,-248.91213369729553 ,-0.795022304513877      ,-126.1096169360294  ,          0.0 ,          0.0 ,-135.04919826257225 ,-248.92071077252288 ,-126.1096169360294  ,-510.0795751088631  , 68.47188505952329   ,170.0265253098953   ,118.59676479448069   ,-130.0845014455565    ,-243.93885898422974 ,-0.795022304513877      ,-121.13634177111356 ,          0.0 ,          0.0 ,-130.07587523259065  ,-243.94743560760702 ,-121.13634177111356 ,-495.1597034735726  , 68.47188505952329   ,165.05325059682949   ,118.59676479448069   ,-2.384468130200031e-06  ,4.886829344096568e-07   ,-7.644320135921287e-07  ,      0.0 ,      0.0 ,      0.0 ,5.400186071829292e-07   ,-2.4358034076121446e-06 ,      0.0 ,-1.895785244928113e-06  ,1.5856979311679231e-06 ,0.3345221473237934   ,0.04241214444140294     ,-6.588967609891308e-07  ,-1.7261149845770052e-09 ,1.8932967721581316e-06 ,20.628575286868724     ,0.0 ,29.990066536613995    ,2.5115200491642904      ,        0.0 ,        0.0 , 0.0
 0.0 ,0.0 ,           0.0 ,            0.0 ,            0.0 ,            0.0 ,              0.0 ,                   0.0 , 369.0 ,46.04371 ,-13.86383 ,           0.0 ,           0.0 ,       0.0 ,48.23061       ,-18.68689   ,-0.02147248      ,0.001504546      ,                 0.0 ,             0.0 ,             0.0 ,                 0.0 ,                 0.0 ,        0.0 ,1.0                    ,            0.0 ,            0.0 ,            0.0 ,              0.0 ,                   0.0 ,  0.0 ,0.0 , 291.7258516460778   ,1.0                ,0.0 ,-135.0549210745025  ,-251.794387402852   ,-1.9698723188034686     ,-127.32540998255608 ,          0.0 ,          0.0 ,-135.0198675776925  ,-251.829440899662   ,-127.32540998255608 ,-514.1747688736557  , 69.7761421549331    ,171.39160651115324  ,120.85581474064492   ,-130.08241608991693   ,-246.82178261511342 ,-1.9698723188034686     ,-122.3529049487588  ,          0.0 ,          0.0 ,-130.04726274074216  ,-246.85693586586473 ,-122.3529049487588  ,-499.2571036045774  , 69.7761421549331    ,166.4190510636107    ,120.85581474064492   ,-2.4536899362614577e-06 ,6.234748508156732e-07   ,-8.873901493634488e-07  ,      0.0 ,      0.0 ,      0.0 ,6.898190938398363e-07   ,-2.520033781343404e-06  ,      0.0 ,-1.830215234539922e-06  ,1.6924749755264825e-06 ,0.5535578179438441   ,0.10254266239876422     ,-2.7142837803937225e-06 ,-2.9000073182697825e-08 ,1.333858030093415e-09  ,0.19598765532459259    ,0.0 ,50.164408122219655    ,4.960260732835986       ,        0.0 ,        0.0 , 0.0
 0.0 ,0.0 ,           0.0 ,            0.0 ,            0.0 ,            0.0 ,              0.0 ,                   0.0 , 370.0 ,44.07784 ,-13.89371 ,           0.0 ,           0.0 ,       0.0 ,47.96594       ,-18.6903    ,-0.02187248      ,0.0006533853     ,                 0.0 ,             0.0 ,             0.0 ,                 0.0 ,                 0.0 ,        0.0 ,1.0                    ,            0.0 ,            0.0 ,            0.0 ,              0.0 ,                   0.0 ,  0.0 ,0.0 , 373.1849773836085   ,1.0                ,0.0 ,-132.73601024967002 ,-253.61115368183061 ,-2.8008886386231246     ,-127.6351535057718  ,          0.0 ,          0.0 ,-132.67007506099105 ,-253.67708887050958 ,-127.6351535057718  ,-513.9823174372724  , 71.36322886835536   ,171.32744755019323  ,123.60475860111208   ,-127.7671794797464    ,-248.64226802255874 ,-2.8008886386231246     ,-122.66629275318081 ,          0.0 ,          0.0 ,-127.70118435905772  ,-248.7082530579245  ,-122.66629275318081 ,-499.0757352128245  , 71.36322886835536   ,166.35861173760816   ,123.60475860111208   ,-2.348310964854796e-06  ,9.104288319744886e-07   ,-1.8400539517927067e-06 ,      0.0 ,      0.0 ,      0.0 ,1.177945227238646e-06   ,-2.6158273353455722e-06 ,      0.0 ,-1.4378824071537221e-06 ,1.9433252807689423e-06 ,0.32801860918485776  ,0.061317005175732416    ,-2.0940316743966694e-06 ,-2.8423672469727383e-08 ,1.1987897444271034e-06 ,29.998706444742957     ,0.0 ,20.10676274240979     ,2.473405061899569       ,        0.0 ,        0.0 , 0.0
 0.0 ,0.0 ,           0.0 ,            0.0 ,            0.0 ,            0.0 ,              0.0 ,                   0.0 , 371.0 ,42.10116 ,-13.91449 ,           0.0 ,           0.0 ,       0.0 ,47.79091       ,-18.69358   ,-0.01695512      ,0.001674666      ,                 0.0 ,             0.0 ,             0.0 ,                 0.0 ,                 0.0 ,        0.0 ,1.2740919043042673     ,            0.0 ,            0.0 ,            0.0 ,              0.0 ,                   0.0 ,  0.0 ,0.0 , 373.8896341256098   ,1.0                ,0.0 ,-132.83412125247543 ,-255.02322245902826 ,-3.0875234819686748     ,-128.26160073091717 ,          0.0 ,          0.0 ,-132.75556806210858 ,-255.10177564939505 ,-128.26160073091717 ,-516.1189444424208  , 71.97021298349463   ,172.03964814747363  ,124.65608606195366   ,-127.86707851715032   ,-250.05618227125782 ,-3.0875234819686748     ,-123.2945121081525  ,          0.0 ,          0.0 ,-127.78853042189292  ,-250.1347119197208  ,-123.2945121081525  ,-501.2177728965607  , 71.97021298349463   ,167.0726079597032    ,124.65608606195366   ,-2.226869544984707e-06  ,8.449218950843671e-07   ,-9.116710850769699e-07  ,      0.0 ,      0.0 ,      0.0 ,9.330636660346014e-07   ,-2.3150117747778825e-06 ,      0.0 ,-1.3819480067781829e-06 ,1.6724039143141028e-06 ,0.11109575399467123  ,-3.41701014009803e-06   ,-7.051411807296536e-08  ,0.0                     ,3.418784631152627e-06  ,49.05640533855097      ,0.0 ,0.0                   ,0.0                     ,        0.0 ,        0.0 , 0.0
 0.0 ,0.0 ,           0.0 ,            0.0 ,            0.0 ,            0.0 ,              0.0 ,                   0.0 , 372.0 ,40.14427 ,-13.88175 ,           0.0 ,           0.0 ,       0.0 ,48.14806       ,-18.69656   ,-0.00715874      ,0.0008898556     ,                 0.0 ,             0.0 ,             0.0 ,                 0.0 ,                 0.0 ,        0.0 ,1.1636946866967859     ,            0.0 ,            0.0 ,            0.0 ,              0.0 ,                   0.0 ,  0.0 ,0.0 , 372.3371986152091   ,1.0                ,0.0 ,-133.25966203288826 ,-254.56714735846265 ,-3.3365605316299787     ,-128.2340650523422  ,          0.0 ,          0.0 ,-133.1670075154499  ,-254.6597528157061  ,-128.2340650523422  ,-516.0608253834982  , 71.61260875798253   ,172.02025877443444  ,124.03666079040997   ,-128.2909674741723    ,-249.5984550433891  ,-3.3365605316299787     ,-123.26537498091116 ,          0.0 ,          0.0 ,-128.19831744401887  ,-249.69103199725208 ,-123.26537498091116 ,-501.1547484382777  , 71.61260875798253   ,167.05156645936094   ,124.03666079040997   ,-1.9875766036554872e-06 ,7.027315443417621e-07   ,-1.058887172206838e-06  ,      0.0 ,      0.0 ,      0.0 ,8.466169176695462e-07   ,-2.131462075103661e-06  ,      0.0 ,-1.28484510837392e-06   ,1.5345714475423801e-06 ,0.32785008770451146  ,0.05660677119814805     ,-1.6526418203754441e-06 ,-7.684651554383341e-08  ,1.3858061200721864e-06 ,28.247198359736384     ,0.0 ,21.117328001134194    ,2.436625600343119       ,        0.0 ,        0.0 , 0.0
 0.0 ,0.0 ,           0.0 ,            0.0 ,            0.0 ,            0.0 ,              0.0 ,                   0.0 , 373.0 ,38.39031 ,-13.48574 ,           0.0 ,           0.0 ,       0.0 ,52.13352       ,-18.69909   ,-0.01380168      ,-0.001264881     ,                 0.0 ,             0.0 ,             0.0 ,                 0.0 ,                 0.0 ,        0.0 ,2.08866444512031       ,            0.0 ,            0.0 ,            0.0 ,              0.0 ,                   0.0 ,  0.0 ,0.0 , 304.9513871188544   ,1.0                ,0.0 ,-131.56591403844976 ,-247.52675734805112 ,-3.3238256348314286     ,-125.13305381285255 ,          0.0 ,          0.0 ,-131.4705618484319  ,-247.62201504350838 ,-125.13305381285255 ,-504.22568238529544 , 68.9653067770293    ,168.0752095201195   ,119.45141638268623   ,-126.59015838748806   ,-242.55095662311416 ,-3.3238256348314286     ,-120.15729871243478 ,          0.0 ,          0.0 ,-126.49480674801416  ,-242.64626049363457 ,-120.15729871243478 ,-489.2983670551714  , 68.9653067770293    ,163.0994549702457    ,119.45141638268623   ,-3.124104846496042e-06  ,7.019650759580166e-07   ,-1.3282833477148076e-06 ,      0.0 ,      0.0 ,      0.0 ,8.978072421461025e-07   ,-3.319947247848312e-06  ,      0.0 ,-2.4221398650325855e-06 ,2.230203011339119e-06  ,0.5273200549230205   ,0.0930838268561909      ,-2.9206205008993142e-06 ,-9.047625908530257e-08  ,3.267295519964333e-08  ,4.419995968496163      ,0.0 ,49.262697205284184    ,4.701033776646088       ,        0.0 ,        0.0 , 0.0
 0.0 ,0.0 ,           0.0 ,            0.0 ,            0.0 ,            0.0 ,              0.0 ,                   0.0 , 374.0 ,36.60333 ,-13.49425 ,           0.0 ,           0.0 ,       0.0 ,52.07108       ,-18.70136   ,-0.01936708      ,4.315891e-06     ,                 0.0 ,             0.0 ,             0.0 ,                 0.0 ,                 0.0 ,        0.0 ,0.48005831215701134    ,            0.0 ,            0.0 ,            0.0 ,              0.0 ,                   0.0 ,  0.0 ,0.0 , 299.3204053366588   ,1.0                ,0.0 ,-130.5480569097425  ,-247.17683572662918 ,-3.3666466428351294     ,-124.83067660363356 ,          0.0 ,          0.0 ,-130.45030083398316 ,-247.2745918023885  ,-124.83067660363356 ,-502.55556924000524 , 69.12891736512947   ,167.5185390819455   ,119.73479077094662   ,-125.57224486443873   ,-242.20102403980272 ,-3.3666466428351294     ,-119.85486455832978 ,          0.0 ,          0.0 ,-125.47448914715672  ,-242.2987797570847  ,-119.85486455832978 ,-487.62808545674    , 69.12891736512947   ,162.5426790308105    ,119.73479077094662   ,-1.0115145475634253e-06 ,2.1151681271540822e-07  ,-8.702324261789925e-07  ,      0.0 ,      0.0 ,      0.0 ,3.505193291987322e-07   ,-1.1505168720234243e-06 ,      0.0 ,-7.999974948188609e-07  ,7.85245302886276e-07   ,0.32948489396639014  ,0.05874266405103128     ,-9.499540164043495e-07  ,-2.078085129479594e-08  ,5.129058221080427e-07  ,30.26346742953705      ,0.0 ,22.863404372583982    ,2.583062986741547       ,        0.0 ,        0.0 , 0.0
 0.0 ,0.0 ,           0.0 ,            0.0 ,            0.0 ,            0.0 ,              0.0 ,                   0.0 , 375.0 ,34.75205 ,-13.55621 ,           0.0 ,           0.0 ,       0.0 ,51.47273       ,-18.70348   ,-0.02141049      ,7.245201e-06     ,                 0.0 ,             0.0 ,             0.0 ,                 0.0 ,                 0.0 ,        0.0 ,0.5824374372792774     ,            0.0 ,            0.0 ,            0.0 ,              0.0 ,                   0.0 ,  0.0 ,0.0 , 296.64702200737105  ,1.0                ,0.0 ,-130.66410889455875 ,-248.71297835266193 ,-3.680030505590515      ,-125.49273196077966 ,          0.0 ,          0.0 ,-130.549469208223   ,-248.82762039805112 ,-125.49273196077966 ,-504.8698215670538  , 69.79671921087629   ,168.28995679152797  ,120.89142863220144   ,-125.68952910349623   ,-243.7384450359625  ,-3.680030505590515      ,-120.51815216971711 ,          0.0 ,          0.0 ,-125.57493589152357  ,-243.85303824793516 ,-120.51815216971711 ,-489.9460775016458  , 69.79671921087629   ,163.31532583388193   ,120.89142863220144   ,-1.0882329146065374e-06 ,2.2012250200817102e-07  ,-9.302742114915986e-07  ,      0.0 ,      0.0 ,      0.0 ,3.686293215300812e-07   ,-1.2367395459754873e-06 ,      0.0 ,-8.68110163842609e-07   ,8.410270520760149e-07  ,0.3157539216672647   ,0.05819042247546161     ,-8.281359710905935e-07  ,-1.1580649389965918e-07 ,5.510508518421176e-07  ,32.25185899892368      ,0.0 ,20.34430896557799     ,2.4242734321752284      ,        0.0 ,        0.0 , 0.0
 0.0 ,0.0 ,           0.0 ,            0.0 ,            0.0 ,            0.0 ,              0.0 ,                   0.0 , 376.0 ,32.84763 ,-13.61321 ,           0.0 ,           0.0 ,       0.0 ,50.92107       ,-18.70531   ,-0.02256947      ,-0.0001305254    ,                 0.0 ,             0.0 ,             0.0 ,                 0.0 ,                 0.0 ,        0.0 ,1.5091382477583817     ,            0.0 ,            0.0 ,            0.0 ,              0.0 ,                   0.0 ,  0.0 ,0.0 , 299.4576631352392   ,1.0                ,0.0 ,-130.4633423977238  ,-249.9220903278893  ,-3.794319803126707      ,-125.96410762488952 ,          0.0 ,          0.0 ,-130.34281866044387 ,-250.04261406516923 ,-125.96410762488952 ,-506.3495403505026  , 70.40753870450983   ,168.78319637496858  ,121.94942587435405   ,-125.49021523491632   ,-244.9490109477172  ,-3.794319803126707      ,-120.99098046208205 ,          0.0 ,          0.0 ,-125.36974042792562  ,-245.06948575470796 ,-120.99098046208205 ,-491.43020664471555 , 70.40753870450983   ,163.81006921216112   ,121.94942587435405   ,-2.1650176894123256e-06 ,3.314788884694134e-07   ,-4.4085143971024397e-07 ,      0.0 ,      0.0 ,      0.0 ,3.5733504856110017e-07  ,-2.1908739470528185e-06 ,      0.0 ,-1.833538892753449e-06  ,1.3799033902599634e-06 ,0.5568584845860687   ,0.1010097217365199      ,-2.6375449401135055e-06 ,-9.887032698930399e-08  ,0.0                    ,2.6456136263438084e-06 ,0.0 ,51.49897597670494     ,4.973121774316402       ,        0.0 ,        0.0 , 0.0
 0.0 ,0.0 ,           0.0 ,            0.0 ,            0.0 ,            0.0 ,              0.0 ,                   0.0 , 377.0 ,30.90038 ,-13.66549 ,           0.0 ,           0.0 ,       0.0 ,50.41186       ,-18.70668   ,-0.02739094      ,-0.0007258999    ,                 0.0 ,             0.0 ,             0.0 ,                 0.0 ,                 0.0 ,        0.0 ,3.026930714901388      ,            0.0 ,            0.0 ,            0.0 ,              0.0 ,                   0.0 ,  0.0 ,0.0 , 277.3393996873871   ,1.0                ,0.0 ,-130.2458859268119  ,-250.66540521286905 ,-4.1890974285077816     ,-126.26825724688202 ,          0.0 ,          0.0 ,-130.09961652975747 ,-250.811701838447   ,-126.26825724688202 ,-507.17955107963445 , 70.82775684377192   ,169.05988369321148  ,122.67727731486318   ,-125.29244920923286   ,-245.711993030742   ,-4.1890974285077816     ,-121.31482052930298 ,          0.0 ,          0.0 ,-125.14620434763044  ,-245.85823789234445 ,-121.31482052930298 ,-492.31926276927777 , 70.82775684377192   ,164.10641974710893   ,122.67727731486318   ,-3.2795047955815028e-06 ,4.1343715562715725e-07  ,-1.430651468268588e-06  ,      0.0 ,      0.0 ,      0.0 ,6.164070960789252e-07   ,-3.4824746964520443e-06 ,      0.0 ,-2.8660676901379045e-06 ,2.210389102308945e-06  ,0.4730447505968134   ,0.06048993079332612     ,-1.7638935977868272e-06 ,7.062337546935165e-09   ,1.2705374675873429e-05 ,5.069431054353168      ,0.0 ,46.914613840175264    ,3.7610801930406463      ,        0.0 ,        0.0 , 0.0
 0.0 ,0.0 ,           0.0 ,            0.0 ,            0.0 ,            0.0 ,              0.0 ,                   0.0 , 378.0 ,28.91431 ,-13.71394 ,           0.0 ,           0.0 ,       0.0 ,49.93365       ,-18.70731   ,-0.02907353      ,-0.0002786171    ,                 0.0 ,             0.0 ,             0.0 ,                 0.0 ,                 0.0 ,        0.0 ,3.657950375769815      ,            0.0 ,            0.0 ,            0.0 ,              0.0 ,                   0.0 ,  0.0 ,0.0 , 286.51723956643343  ,1.0                ,0.0 ,-129.60144109345376 ,-251.77161435182188 ,-4.53459299584646       ,-126.627461873226   ,          0.0 ,          0.0 ,-129.43152543243235 ,-251.94161344255605 ,-126.627461873226   ,-508.0005836457332  , 71.55609949488701   ,169.33355569181532  ,123.93881904571606   ,-124.64684265663685   ,-246.81701591500496 ,-4.53459299584646       ,-121.67286343640907 ,          0.0 ,          0.0 ,-124.47692699561543  ,-246.9869486785076  ,-121.67286343640907 ,-493.1367220080509  , 71.55609949488701   ,164.37889092776686   ,123.93881904571606   ,-2.11240228336482e-06   ,4.101789884944116e-08   ,-2.263425267225304e-06  ,      0.0 ,      0.0 ,      0.0 ,5.321593195390467e-07   ,-2.6035431762322616e-06 ,      0.0 ,-2.0713842060101304e-06 ,1.6802936992977907e-06 ,0.4836014405730043   ,0.09719647453226091     ,-1.250994791692295e-05  ,3.031390522893384e-07   ,5.646805913683265e-07  ,7.244290198941377      ,0.0 ,44.83582532615525     ,4.131478202672952       ,        0.0 ,        0.0 , 0.0
 0.0 ,0.0 ,           0.0 ,            0.0 ,            0.0 ,            0.0 ,              0.0 ,                   0.0 , 379.0 ,26.9051  ,-13.72095 ,           0.0 ,           0.0 ,       0.0 ,49.85826       ,-18.70678   ,-0.02637492      ,0.001090873      ,                 0.0 ,             0.0 ,             0.0 ,                 0.0 ,                 0.0 ,        0.0 ,3.520807213931465      ,            0.0 ,            0.0 ,            0.0 ,              0.0 ,                   0.0 ,  0.0 ,0.0 , 346.0104620775364   ,1.0                ,0.0 ,-128.63181231584198 ,-252.14409771147422 ,-5.092277980697653      ,-126.63363870539162 ,          0.0 ,          0.0 ,-128.41934243338687 ,-252.35657635462394 ,-126.63363870539162 ,-507.40955749340253 , 72.07759327093002   ,169.13652567864494  ,124.84203635684217   ,-123.65824164852114   ,-247.17052225222548 ,-5.092277980697653      ,-121.66006803807082 ,          0.0 ,          0.0 ,-123.44577176606603  ,-247.38299333266258 ,-121.66006803807082 ,-492.48883553276335 , 72.07759327093002   ,164.16294265668355   ,124.84203635684217   ,-1.5920109592276365e-06 ,8.974796706482063e-08   ,-2.322641641779653e-06  ,      0.0 ,      0.0 ,      0.0 ,6.868243150795605e-07   ,-2.1890871567648775e-06 ,      0.0 ,-1.502262616552271e-06  ,1.5028903447218749e-06 ,0.19304188516193144  ,0.015502501337156567    ,-3.81463797099921e-07   ,-3.919327167743049e-09  ,2.357451204042947e-06  ,39.57130049910379      ,0.0 ,12.277040933390943    ,0.974046518375101       ,        0.0 ,        0.0 , 0.0
 0.0 ,0.0 ,           0.0 ,            0.0 ,            0.0 ,            0.0 ,              0.0 ,                   0.0 , 380.0 ,24.98552 ,-13.3613  ,           0.0 ,           0.0 ,       0.0 ,53.4398        ,-18.70528   ,-0.02475965      ,-0.004466673     ,                 0.0 ,             0.0 ,             0.0 ,                 0.0 ,                 0.0 ,        0.0 ,1.0218762709976146     ,            0.0 ,            0.0 ,            0.0 ,              0.0 ,                   0.0 ,  0.0 ,0.0 , 378.64848950266077  ,1.0                ,0.0 ,-123.66777602370999 ,-245.23834563027282 ,-4.869133092971952      ,-122.9200743990887  ,          0.0 ,          0.0 ,-123.47097263913088 ,-245.43515910676746 ,-122.9200743990887  ,-491.8262187598816  , 70.57619535080329   ,163.94208132989013  ,122.24152956044242   ,-118.69308451070621   ,-240.2636642091846  ,-4.869133092971952      ,-117.94538036310604 ,          0.0 ,          0.0 ,-118.49628112612712  ,-240.46047768567928 ,-117.94538036310604 ,-476.9021240370391  , 70.57619535080329   ,158.96737467901303   ,122.24152956044242   ,-4.46041583687494e-07   ,2.8688793104656406e-08  ,-7.115214623257258e-07  ,      0.0 ,      0.0 ,      0.0 ,2.1900098606271016e-07  ,-6.363537766455478e-07  ,      0.0 ,-4.1735266284830374e-07 ,4.4432329873781154e-07 ,0.0982017655763337   ,3.189205352554631e-07   ,-4.144738814301477e-07  ,0.0                     ,2.1276096780546225e-06 ,54.01767268754655      ,0.0 ,0.0                   ,0.0                     ,        0.0 ,        0.0 , 0.0
 0.0 ,0.0 ,           0.0 ,            0.0 ,            0.0 ,            0.0 ,              0.0 ,                   0.0 , 381.0 ,23.08365 ,-13.20153 ,           0.0 ,           0.0 ,       0.0 ,55.00128       ,-18.70166   ,-0.02681948      ,-0.002387131     ,                 0.0 ,             0.0 ,             0.0 ,                 0.0 ,                 0.0 ,        0.0 ,1.4689931975341037     ,            0.0 ,            0.0 ,            0.0 ,              0.0 ,                   0.0 ,  0.0 ,0.0 , 305.9780008472484   ,1.0                ,0.0 ,-121.48166170057618 ,-242.146135326505   ,-4.731559395904499      ,-121.2694482579709  ,          0.0 ,          0.0 ,-121.29599772114383 ,-242.33184721000748 ,-121.2694482579709  ,-484.89724516701096 , 69.8878354653718    ,161.63239912699396  ,121.04927528281986   ,-116.50368012263758   ,-237.1681528042377  ,-4.731559395904499      ,-116.29141771359238 ,          0.0 ,          0.0 ,-116.31796729480641  ,-237.35381690171113 ,-116.29141771359238 ,-469.9632509945909  , 69.8878354653718    ,156.6544166047267    ,121.04927528281986   ,-1.9901332242913023e-06 ,2.9378987451407547e-07  ,-5.874533176802831e-07  ,      0.0 ,      0.0 ,      0.0 ,3.309600052570406e-07   ,-2.0273036488329067e-06 ,      0.0 ,-1.6963433987436668e-06 ,1.2767734789791694e-06 ,0.09219922571705996  ,-9.458087324894671e-08  ,-3.2141558383856865e-07 ,0.0                     ,2.420491330338617e-06  ,55.849429916006116     ,0.0 ,0.0                   ,0.0                     ,        0.0 ,        0.0 , 0.0
 0.0 ,0.0 ,           0.0 ,            0.0 ,            0.0 ,            0.0 ,              0.0 ,                   0.0 , 382.0 ,21.18908 ,-13.15847 ,           0.0 ,           0.0 ,       0.0 ,55.37388       ,-18.69586   ,-0.03235127      ,-0.002083634     ,                 0.0 ,             0.0 ,             0.0 ,                 0.0 ,                 0.0 ,        0.0 ,3.483103875266709      ,            0.0 ,            0.0 ,            0.0 ,              0.0 ,                   0.0 ,  0.0 ,0.0 , 304.3510787393069   ,0.9999999999999999 ,0.0 ,-119.75533144901627 ,-241.46933008017862 ,-5.068751893527215      ,-120.65879895769129 ,          0.0 ,          0.0 ,-119.54275168680894 ,-241.68195927179426 ,-120.65879895769129 ,-481.88346161698826 , 70.19840080228369   ,160.62780406252662  ,121.58722500042185   ,-114.77531482295272   ,-236.48931345411506 ,-5.068751893527215      ,-115.6787329022194  ,          0.0 ,          0.0 ,-114.56263619084747  ,-236.7018932163224  ,-115.6787329022194  ,-466.9433128688996  , 70.19840080228369   ,155.6477874364631    ,121.58722500042185   ,-2.535285451989959e-06  ,1.566746981839391e-07   ,-2.008053734981534e-06  ,      0.0 ,      0.0 ,      0.0 ,7.35794212043053e-07    ,-3.1144050156751165e-06 ,      0.0 ,-2.378610952008938e-06  ,2.048572193807737e-06  ,0.09394091883349157  ,0.0008455551850922654   ,-3.815422818962879e-08  ,-2.0779152773590764e-10 ,2.5283155958390826e-06 ,56.775274698578585     ,0.0 ,0.7508279461852377    ,0.05634577018018681     ,        0.0 ,        0.0 , 0.0
 0.0 ,0.0 ,           0.0 ,            0.0 ,            0.0 ,            0.0 ,              0.0 ,                   0.0 , 383.0 ,19.29598 ,-13.16083 ,           0.0 ,           0.0 ,       0.0 ,55.26492       ,-18.68732   ,-0.03560332      ,-0.002017658     ,                 0.0 ,             0.0 ,             0.0 ,                 0.0 ,                 0.0 ,        0.0 ,2.0176298229884178     ,            0.0 ,            0.0 ,            0.0 ,              0.0 ,                   0.0 ,  0.0 ,0.0 , 306.7020787036204   ,1.0                ,0.0 ,-117.55271133367569 ,-241.62601449820795 ,-5.154959729923286      ,-120.29830584702623 ,          0.0 ,          0.0 ,-117.33684276205962 ,-241.84188280843517 ,-120.29830584702623 ,-479.477031417521   , 71.04581447544858   ,159.82569372427236  ,123.0549591645078    ,-112.57327035257353   ,-236.6465240231986  ,-5.154959729923286      ,-115.31881563340568 ,          0.0 ,          0.0 ,-112.35735179764234  ,-236.86239259481465 ,-115.31881563340568 ,-464.5385597644738  , 71.04581447544858   ,154.846203249263     ,123.0549591645078    ,-5.255700559194466e-07  ,-1.4030445349899318e-07 ,-1.420074136638612e-06  ,      0.0 ,      0.0 ,      0.0 ,4.054040971811218e-07   ,-1.0712783551146529e-06 ,      0.0 ,-6.658746614594956e-07  ,7.630668615780502e-07  ,0.3400999104399424   ,0.03848378972414662     ,1.5266118763091243e-06  ,-4.2300457795983063e-07 ,1.3659822610717745e-06 ,24.817395260976816     ,0.0 ,31.729509496627614    ,2.4672024784284594      ,        0.0 ,        0.0 , 0.0
 0.0 ,0.0 ,           0.0 ,            0.0 ,            0.0 ,            0.0 ,              0.0 ,                   0.0 , 384.0 ,17.39097 ,-13.18307 ,           0.0 ,           0.0 ,       0.0 ,54.92302       ,-18.67537   ,-0.03950427      ,-0.001683244     ,                 0.0 ,             0.0 ,             0.0 ,                 0.0 ,                 0.0 ,        0.0 ,1.568386345972797      ,            0.0 ,            0.0 ,            0.0 ,              0.0 ,                   0.0 ,  0.0 ,0.0 , 287.47844008182767  ,1.0                ,0.0 ,-116.32166083739642 ,-242.0999204192989  ,-5.279337388454508      ,-120.27634261499354 ,          0.0 ,          0.0 ,-116.09577956587759 ,-242.3258285703996  ,-120.27634261499354 ,-478.6979238716889  , 71.70480926985043   ,159.5659907773178   ,124.19633861446428   ,-111.35002516701894   ,-237.1282362886569  ,-5.279337388454508      ,-115.3046584843515  ,          0.0 ,          0.0 ,-111.12414389550011  ,-237.3541444397576  ,-115.3046584843515  ,-463.78291994002734 , 71.70480926985043   ,154.5943066466758    ,124.19633861446428   ,-3.587374334236566e-07  ,-4.3932502773036693e-07 ,-1.2006466232171274e-06 ,      0.0 ,      0.0 ,      0.0 ,3.804491091531311e-07   ,-1.1785116107497489e-06 ,      0.0 ,-7.980625777965071e-07  ,8.188504908832028e-07  ,0.4841993787951545   ,0.057696539322162586    ,1.1728351497742279e-06  ,-4.1988138922996794e-07 ,4.204721416060535e-06  ,7.291925421069499      ,0.0 ,49.062111145596276    ,3.7559234205768424      ,        0.0 ,        0.0 , 0.0
 0.0 ,0.0 ,           0.0 ,            0.0 ,            0.0 ,            0.0 ,              0.0 ,                   0.0 , 385.0 ,15.46574 ,-13.21891 ,           0.0 ,           0.0 ,       0.0 ,54.39744       ,-18.65866   ,-0.0460532       ,-0.001804093     ,                 0.0 ,             0.0 ,             0.0 ,                 0.0 ,                 0.0 ,        0.0 ,4.0                    ,            0.0 ,            0.0 ,            0.0 ,              0.0 ,                   0.0 ,  0.0 ,0.0 , 287.9277124930777   ,1.0                ,0.0 ,-114.85933377502951 ,-242.87096367767398 ,-5.5621995400344435     ,-120.31310867649134 ,          0.0 ,          0.0 ,-114.61332056584513 ,-243.11702495042226 ,-120.31310867649134 ,-478.04340612919486 , 72.60589542518376   ,159.34781024997693  ,125.75707730065673   ,-109.8886600502101    ,-237.90032549987058 ,-5.5621995400344435     ,-115.34244587795197 ,          0.0 ,          0.0 ,-109.64264957259573  ,-238.14638677261888 ,-115.34244587795197 ,-463.13139041787656 , 72.60589542518376   ,154.3771474514376    ,125.75707730065673   ,3.4455971074666866e-07  ,-1.4204824841210488e-06 ,-2.524075301882427e-06  ,      0.0 ,      0.0 ,      0.0 ,1.1292535951583029e-06  ,-2.205175853879954e-06  ,      0.0 ,-1.0759227276666324e-06 ,1.69815013312649e-06   ,0.49611229560784753  ,0.05613146596907531     ,-8.10420025250923e-07   ,-1.6994102143628895e-08 ,3.0665126665424863e-06 ,6.950734906365724      ,0.0 ,50.47032751306242     ,3.758498221560723       ,        0.0 ,        0.0 , 0.0
 0.0 ,0.0 ,           0.0 ,            0.0 ,            0.0 ,            0.0 ,              0.0 ,                   0.0 , 386.0 ,13.51476 ,-13.27066 ,           0.0 ,           0.0 ,       0.0 ,53.63013       ,-18.63368   ,-0.05081662      ,-0.001325922     ,                 0.0 ,             0.0 ,             0.0 ,                 0.0 ,                 0.0 ,        0.0 ,3.491538760369247      ,            0.0 ,            0.0 ,            0.0 ,              0.0 ,                   0.0 ,  0.0 ,0.0 , 295.56819579590353  ,1.0                ,0.0 ,-113.85843355160215 ,-244.5185088027569  ,-5.526218524948144      ,-120.7916341406158  ,          0.0 ,          0.0 ,-113.62274504511599 ,-244.75421471411028 ,-120.7916341406158  ,-479.16859389984205 , 73.72997437848635   ,159.7228588316583   ,127.70406921192966   ,-108.88744579852832   ,-239.54753163679084 ,-5.526218524948144      ,-115.82067301103926 ,          0.0 ,          0.0 ,-108.65176394791648  ,-239.78325358453372 ,-115.82067301103926 ,-464.2556279159797  , 73.72997437848635   ,154.75189770208175   ,127.70406921192966   ,2.0506991919657156e-07  ,-1.8837978431303401e-06 ,-2.348622069460271e-06  ,      0.0 ,      0.0 ,      0.0 ,1.198714315774803e-06   ,-2.8774417904951106e-06 ,      0.0 ,-1.6787279570650663e-06 ,2.114512294547265e-06  ,0.45537896957296486  ,0.049549075804097       ,-3.346398698862775e-07  ,-1.652614990434986e-08  ,7.107673083202465e-06  ,12.289503011933654     ,0.0 ,44.57335868344723     ,3.3187001393257165      ,        0.0 ,        0.0 , 0.0
 0.0 ,0.0 ,           0.0 ,            0.0 ,            0.0 ,            0.0 ,              0.0 ,                   0.0 , 387.0 ,11.53739 ,-13.31905 ,           0.0 ,           0.0 ,       0.0 ,52.77167       ,-18.59622   ,-0.05261291      ,0.002052901      ,                 0.0 ,             0.0 ,             0.0 ,                 0.0 ,                 0.0 ,        0.0 ,2.5094422745377876     ,            0.0 ,            0.0 ,            0.0 ,              0.0 ,                   0.0 ,  0.0 ,0.0 , 313.9562070795639   ,1.0                ,0.0 ,-112.61795253751919 ,-245.91063539567295 ,-5.52921295675215       ,-121.11155072707652 ,          0.0 ,          0.0 ,-112.38729798012346 ,-246.14134334251253 ,-121.11155072707652 ,-479.6401920497125  , 74.833784449129     ,159.8800391739421   ,129.6159059029178    ,-107.63933221106623   ,-240.93202103037703 ,-5.52921295675215       ,-116.13293636178057 ,          0.0 ,          0.0 ,-107.40867597319343  ,-241.16272897721663 ,-116.13293636178057 ,-464.704323481711   , 74.833784449129     ,154.90142480864614   ,129.6159059029178    ,7.034914744235668e-07   ,-2.6587407786982465e-06 ,-2.4710749762175983e-06 ,      0.0 ,      0.0 ,      0.0 ,1.1280290029332886e-06  ,-3.083278268217958e-06  ,      0.0 ,-1.955249464443011e-06  ,2.18640892078146e-06   ,0.22751110156317172  ,0.018962588520272678    ,-3.542245980351941e-07  ,-6.324578100127016e-09  ,2.622119682142457e-06  ,39.36685871243075      ,0.0 ,17.05827974513505     ,1.2700706664014512      ,        0.0 ,        0.0 , 0.0
 0.0 ,0.0 ,           0.0 ,            0.0 ,            0.0 ,            0.0 ,              0.0 ,                   0.0 , 388.0 ,9.579203 ,-13.14517 ,           0.0 ,           0.0 ,       0.0 ,53.97184       ,-18.54235   ,-0.05171371      ,-0.001091079     ,                 0.0 ,             0.0 ,             0.0 ,                 0.0 ,                 0.0 ,        0.0 ,2.4986965576090285     ,            0.0 ,            0.0 ,            0.0 ,              0.0 ,                   0.0 ,  0.0 ,0.0 , 309.491819816305    ,1.0                ,0.0 ,-109.03497523566377 ,-243.170355587653   ,-4.920139957942881      ,-119.30474777485195 ,          0.0 ,          0.0 ,-108.8516420130721  ,-243.3537375223158  ,-119.30474777485195 ,-471.510102375412   , 74.82282249470046   ,157.17001741502258  ,129.59693387116525   ,-104.0548783397613    ,-238.19024843416477 ,-4.920139957942881      ,-114.32461568653582 ,          0.0 ,          0.0 ,-103.87150992475598  ,-238.3736054339997  ,-114.32461568653582 ,-456.5697310452915  , 74.82282249470046   ,152.18988532670647   ,129.59693387116525   ,1.688170014139614e-06   ,-3.822355517721557e-06  ,-2.3242461935900523e-06 ,      0.0 ,      0.0 ,      0.0 ,1.9643381920752598e-06  ,-4.098523372995861e-06  ,      0.0 ,-2.1341855749136735e-06 ,3.10516858781667e-06   ,0.2262255571006231   ,0.02482259576385712     ,-6.627383681777523e-07  ,-6.180271633965049e-08  ,1.7753203729560054e-06 ,45.7498906918688       ,0.0 ,12.460674056249625    ,1.2405473334287882      ,        0.0 ,        0.0 , 0.0
 0.0 ,0.0 ,           0.0 ,            0.0 ,            0.0 ,            0.0 ,              0.0 ,                   0.0 , 389.0 ,7.64494  ,-13.05811 ,           0.0 ,           0.0 ,       0.0 ,54.06267       ,-18.46438   ,-0.04606276      ,0.0006582598     ,                 0.0 ,             0.0 ,             0.0 ,                 0.0 ,                 0.0 ,        0.0 ,3.2421140394490746     ,            0.0 ,            0.0 ,            0.0 ,              0.0 ,                   0.0 ,  0.0 ,0.0 , 311.24019643955694  ,1.0                ,0.0 ,-106.56373091361098 ,-242.15142420254531 ,-4.148731158132712      ,-118.41819075296173 ,          0.0 ,          0.0 ,-106.43481184327487 ,-242.28039007536017 ,-118.41819075296173 ,-467.13336117234127 , 75.21176845083536   ,155.71111995945773  ,130.27060293442685   ,-101.5828334023243    ,-237.1705242134734  ,-4.148731158132712      ,-113.43724141087387 ,          0.0 ,          0.0 ,-101.45385995064981  ,-237.29944073327232 ,-113.43724141087387 ,-452.19056249909363 , 75.21176845083536   ,150.73017061736988   ,130.27060293442685   ,2.3925103219641903e-06  ,-4.968528564672289e-06  ,-2.0156491036196628e-06 ,      0.0 ,      0.0 ,      0.0 ,2.5382588210273654e-06  ,-5.114276710297856e-06  ,      0.0 ,-2.5760182427080987e-06 ,3.932075327338539e-06  ,0.36003665954552033  ,0.04913352863359461     ,-1.2720154583175944e-06 ,-1.223249047823288e-07  ,8.684388245627177e-07  ,34.46693938423895      ,0.0 ,24.66316786267958     ,2.4553910155934515      ,        0.0 ,        0.0 , 0.0
 0.0 ,0.0 ,           0.0 ,            0.0 ,            0.0 ,            0.0 ,              0.0 ,                   0.0 , 390.0 ,5.72081  ,-13.02436 ,           0.0 ,           0.0 ,       0.0 ,53.28602       ,-18.35297   ,-0.03734855      ,0.00165237       ,                 0.0 ,             0.0 ,             0.0 ,                 0.0 ,                 0.0 ,        0.0 ,2.50357234292099       ,            0.0 ,            0.0 ,            0.0 ,              0.0 ,                   0.0 ,  0.0 ,0.0 , 256.7702200537438   ,1.0                ,0.0 ,-105.16030751053383 ,-242.02936776071545 ,-3.1705620291625554     ,-118.11829711542534 ,          0.0 ,          0.0 ,-105.08673222448681 ,-242.10293801103904 ,-118.11829711542534 ,-465.3080025157839  , 75.62643381668245   ,155.10263422874883  ,130.98880952404593   ,-100.17922230247223   ,-237.04833740160558 ,-3.1705620291625554     ,-113.13721690899466 ,          0.0 ,          0.0 ,-100.10564701642521  ,-237.12190765192918 ,-113.13721690899466 ,-450.3648116415352  , 75.62643381668245   ,150.121603869639     ,130.98880952404593   ,2.1795226661153743e-06  ,-5.722205367440181e-06  ,-1.3010290352045336e-06 ,      0.0 ,      0.0 ,      0.0 ,2.2333221332758206e-06  ,-5.776004632830764e-06  ,      0.0 ,-3.5426827013248064e-06 ,4.174444022125637e-06  ,0.08589465210671098  ,-2.5441405849627145e-06 ,-5.423145685261233e-07  ,0.0                     ,2.6015482344263615e-06 ,59.457508599901736     ,0.0 ,0.0                   ,0.0                     ,        0.0 ,        0.0 , 0.0
 0.0 ,0.0 ,           0.0 ,            0.0 ,            0.0 ,            0.0 ,              0.0 ,                   0.0 , 391.0 ,119.3012 ,-13.21547 ,           0.0 ,           0.0 ,       0.0 ,15.45973       ,-14.76144   ,0.002074063      ,0.0001623577     ,                 0.0 ,             0.0 ,             0.0 ,                 0.0 ,                 0.0 ,        0.0 ,1.9951604070059727     ,            0.0 ,            0.0 ,            0.0 ,              0.0 ,                   0.0 ,  0.0 ,0.0 , 293.5503665639238   ,1.0                ,0.0 ,-121.90682550763314 ,-242.49632092674    ,-0.10052713330852212    ,-121.31604429404936 ,          0.0 ,          0.0 ,-121.90672609081676 ,-242.49642034355634 ,-121.31604429404936 ,-485.7191909558918  , 69.79577882494573   ,161.9064137491612   ,120.8898414472901    ,-117.02921988009412   ,-237.61866559079277 ,-0.10052713330852212    ,-116.43843866651034 ,          0.0 ,          0.0 ,-117.02907075486957  ,-237.61881507173166 ,-116.43843866651034 ,-471.08627442898904 , 69.79577882494573   ,157.02875818574466   ,120.8898414472901    ,9.785432770357931e-06   ,-7.2638430194834535e-06 ,-1.582152604843446e-07  ,      0.0 ,      0.0 ,      0.0 ,9.785833222214222e-06   ,-7.264238500498925e-06  ,      0.0 ,2.5215937229977455e-06  ,8.556718050347713e-06  ,0.3597732636314954   ,0.1297139249422114      ,-0.006387655692384178   ,-0.010909528003260515   ,0.0018858553122817017  ,14.692931249252215     ,0.0 ,9.244325199329696     ,2.4161911753297503      ,        0.0 ,        0.0 , 0.0
 0.0 ,0.0 ,           0.0 ,            0.0 ,            0.0 ,            0.0 ,              0.0 ,                   0.0 , 392.0 ,119.3298 ,-11.28898 ,           0.0 ,           0.0 ,       0.0 ,11.10955       ,-12.39994   ,0.002429325      ,0.0002841371     ,                 0.0 ,             0.0 ,             0.0 ,                 0.0 ,                 0.0 ,        0.0 ,2.4886354919202054     ,            0.0 ,            0.0 ,            0.0 ,              0.0 ,                   0.0 ,  0.0 ,0.0 , 260.98180879983016  ,1.0                ,0.0 ,-104.1248162839671  ,-208.1458194087537  ,0.21411174969227986     ,-103.85512578792802 ,          0.0 ,          0.0 ,-104.12402951682643 ,-208.1466215895678  ,-103.85512578792802 ,-416.12582626703863 , 60.13540214123282   ,138.70864160409172  ,104.15755424108272   ,-99.27904247197662    ,-203.30003602411665 ,0.21411174969227986     ,-99.00935197593753  ,          0.0 ,          0.0 ,-99.27825570483594   ,-203.30083747754895 ,-99.00935197593753  ,-401.588425067433   , 60.13540214123282   ,133.86280862852368   ,104.15755424108272   ,1.979850168993536e-05   ,-2.2715419246789224e-05 ,1.0061976776313611e-06  ,      0.0 ,      0.0 ,      0.0 ,1.9805278323709082e-05  ,-2.272219589511058e-05  ,      0.0 ,-2.916918051855609e-06  ,2.132868648402562e-05  ,0.21240680327245487  ,-0.0021218947519668447  ,-0.006449516927884213   ,0.0                     ,0.007334846778157003   ,25.01725130394354      ,0.0 ,0.0                   ,0.0                     ,        0.0 ,        0.0 , 0.0
 0.0 ,0.0 ,           0.0 ,            0.0 ,            0.0 ,            0.0 ,              0.0 ,                   0.0 , 393.0 ,5.646539 ,-14.92283 ,           0.0 ,           0.0 ,       0.0 ,35.03352       ,-18.42618   ,-0.03377998      ,0.001914304      ,                 0.0 ,             0.0 ,             0.0 ,                 0.0 ,                 0.0 ,        0.0 ,1.5117984419490118     ,            0.0 ,            0.0 ,            0.0 ,              0.0 ,                   0.0 ,  0.0 ,0.0 , 316.8758627143592   ,1.0                ,0.0 ,-123.8517810688689  ,-276.9893078369618  ,-4.424687875027009      ,-135.9131497459799  ,          0.0 ,          0.0 ,-123.71811274917444 ,-277.1229769581613  ,-135.9131497459799  ,-536.7542386518107  , 85.2706677472284    ,178.91808036705064  ,147.69312225227148   ,-118.89559305166387   ,-272.0331181719206  ,-4.424687875027009      ,-130.95696092726993 ,          0.0 ,          0.0 ,-118.7618735072988   ,-272.16683691478073 ,-130.95696092726993 ,-521.8856713493493  , 85.2706677472284    ,173.9618899005044    ,147.69312225227148   ,3.4525115242985294e-06  ,-5.517244579429533e-06  ,-2.375520637542628e-06  ,      0.0 ,      0.0 ,      0.0 ,3.639300774157996e-06   ,-5.704033325057343e-06  ,      0.0 ,-2.064732550899348e-06  ,4.710137038857096e-06  ,0.37947043176606443  ,0.08031702266002977     ,-4.524667052628406e-06  ,1.76198164824327e-08    ,1.5796797651434531e-06 ,24.422045737838882     ,0.0 ,16.186874294533993    ,2.5294846527718886      ,        0.0 ,        0.0 , 0.0
 0.0 ,0.0 ,           0.0 ,            0.0 ,            0.0 ,            0.0 ,              0.0 ,                   0.0 , 394.0 ,5.533893 ,-16.80366 ,           0.0 ,           0.0 ,       0.0 ,17.16689       ,-18.52035   ,-0.03341971      ,0.00273665       ,                 0.0 ,             0.0 ,             0.0 ,                 0.0 ,                 0.0 ,        0.0 ,2.9991453224747766     ,            0.0 ,            0.0 ,            0.0 ,              0.0 ,                   0.0 ,  0.0 ,0.0 , 316.55395695769556  ,1.0                ,0.0 ,-143.72548890241612 ,-312.1377982561879  ,-5.473940834024124      ,-153.96117486275335 ,          0.0 ,          0.0 ,-143.54089165384983 ,-312.32239550475424 ,-153.96117486275335 ,-609.8245120640913  , 94.5877763192131    ,203.2748204848632   ,163.83081096695736   ,-138.9318599048938    ,-307.3442198681672  ,-5.473940834024124      ,-149.1675465174665  ,          0.0 ,          0.0 ,-138.74726265632748  ,-307.52881654996577 ,-149.1675465174665  ,-595.4436257237596  , 94.5877763192131    ,198.48124153007475   ,163.83081096695736   ,2.049574336384225e-06   ,-7.489882949496223e-06  ,-3.5203647162635845e-06 ,      0.0 ,      0.0 ,      0.0 ,2.381135206529872e-06   ,-7.821443984782894e-06  ,      0.0 ,-5.44030835524044e-06   ,5.426804233284307e-06  ,0.2649094999937952   ,0.002078034900603701    ,1.0923883187515241e-06  ,6.766685533003434e-09   ,9.288718539619795e-05  ,21.716122783276553     ,0.0 ,0.0683425558440142    ,0.026177194477512364    ,        0.0 ,        0.0 , 0.0
 0.0 ,0.0 ,           0.0 ,            0.0 ,            0.0 ,            0.0 ,              0.0 ,                   0.0 , 395.0 ,5.492789 ,-18.67766 ,           0.0 ,           0.0 ,       0.0 ,-0.5561856     ,-18.62204   ,-0.0328567       ,0.002826705      ,                 0.0 ,             0.0 ,             0.0 ,                 0.0 ,                 0.0 ,        0.0 ,3.9895131742792436     ,            0.0 ,            0.0 ,            0.0 ,              0.0 ,                   0.0 ,  0.0 ,0.0 , 317.09760454878653  ,0.9999999999999999 ,0.0 ,-161.30431624350678 ,-342.285128718647   ,-6.734648497359462      ,-169.16320984985822 ,          0.0 ,          0.0 ,-161.0446344454114  ,-342.544811565425   ,-169.16320984985822 ,-672.7526062260771  ,102.53221661652172   ,224.25085265268658  ,177.59105070383765   ,-161.89139781010192   ,-342.8722596019421  ,-6.734648497359462      ,-169.7502914164533  ,          0.0 ,          0.0 ,-161.6317160120065   ,-343.1318931320201  ,-169.7502914164533  ,-674.5139501950973  ,102.53221661652172   ,224.83798385389915   ,177.59105070383765   ,1.414448726499466e-06   ,-2.287070696306306e-05  ,-5.4414809996110205e-06 ,      0.0 ,      0.0 ,      0.0 ,1.7348638084119317e-06  ,-2.3191124140116286e-05 ,      0.0 ,-2.1456257996219406e-05 ,1.3952546286599766e-05 ,0.6378561329211725   ,0.6851831619683774      ,-0.0013028972032457955  ,-2.3818833531692152e-05 ,6.043233619956969e-05  ,-0.07276434200942765   ,0.0 ,3.155930639861696     ,-0.5130439415683634     ,        0.0 ,        0.0 , 0.0
 0.0 ,0.0 ,           0.0 ,            0.0 ,            0.0 ,            0.0 ,              0.0 ,                   0.0 , 396.0 ,5.508934 ,-20.55198 ,           0.0 ,           0.0 ,       0.0 ,-18.40195      ,-18.71178   ,-0.03063         ,0.003699929      ,                 0.0 ,             0.0 ,             0.0 ,                 0.0 ,                 0.0 ,        0.0 ,2.989249132639964      ,            0.0 ,            0.0 ,            0.0 ,              0.0 ,                   0.0 ,  0.0 ,0.0 , 318.0896093132496   ,1.0                ,0.0 ,-175.30127393424658 ,-362.2991948101147  ,-7.720256711907617      ,-179.93767853869545 ,          0.0 ,          0.0 ,-174.97501264633604 ,-362.6255550229385  ,-179.93767853869545 ,-717.5382472830566  ,106.94023819439319   ,239.17944909435224  ,185.22592058539388   ,-191.140389816878     ,-378.1383106927461  ,-7.720256711907617      ,-195.77674479401853 ,          0.0 ,          0.0 ,-190.8140789016591   ,-378.4646212782616  ,-195.77674479401853 ,-765.0554946012475  ,106.94023819439319   ,255.0185142745886    ,185.22592058539388   ,-2.5861387683002754e-06 ,-2.6569452301729103e-05 ,-4.745331920520875e-06  ,      0.0 ,      0.0 ,      0.0 ,-2.3435530261705894e-06 ,-2.681204150544799e-05  ,      0.0 ,-2.91555989979268e-05   ,1.4863726133056476e-05 ,1.0                  ,-0.005720466376978363   ,-6.640081071313265e-05  ,0.0                     ,0.0057209445357391505  ,-15.839079909575783    ,0.0 ,0.0                   ,0.0                     ,        0.0 ,        0.0 , 0.0
 0.0 ,0.0 ,           0.0 ,            0.0 ,            0.0 ,            0.0 ,              0.0 ,                   0.0 , 397.0 ,5.553928 ,-22.4315  ,           0.0 ,           0.0 ,       0.0 ,-36.52973      ,-18.77853   ,-0.02751143      ,0.003939869      ,                 0.0 ,             0.0 ,             0.0 ,                 0.0 ,                 0.0 ,        0.0 ,1.034264410653238      ,            0.0 ,            0.0 ,            0.0 ,              0.0 ,                   0.0 ,  0.0 ,0.0 , 270.44238547483917  ,1.0                ,0.0 ,-185.8616852143059  ,-377.65404043125807 ,-8.205172984271455      ,-188.7570498927711  ,          0.0 ,          0.0 ,-185.51002969325498 ,-378.00569719836244 ,-188.7570498927711  ,-752.2728247594487  ,110.21488586911991   ,250.75762424483625  ,190.8977713956797    ,-221.33450793608466   ,-413.12686315303677 ,-8.205172984271455      ,-224.22982183566347 ,          0.0 ,          0.0 ,-220.98285241503373  ,-413.4785186740877  ,-224.22982183566347 ,-858.6911929247849  ,110.21488586911991   ,286.23039774550136   ,190.8977713956797    ,-7.991012720773278e-08  ,-1.1430877820062844e-05 ,-1.9219248324230977e-06 ,      0.0 ,      0.0 ,      0.0 ,8.827376944942069e-10   ,-1.1511670297920945e-05 ,      0.0 ,-1.1510788765585915e-05 ,6.64652301836658e-06   ,0.7965274595942999   ,0.5059793088395729      ,-0.007945107393932557   ,-0.011902818595988279   ,0.001809651649492677   ,-12.758357887003095    ,0.0 ,-22.70013047166284    ,-22.70013047166284      ,        0.0 ,        0.0 , 0.0
 0.0 ,0.0 ,           0.0 ,            0.0 ,            0.0 ,            0.0 ,              0.0 ,                   0.0 , 398.0 ,117.4671 ,-11.37645 ,           0.0 ,           0.0 ,       0.0 ,21.42859       ,-13.5193    ,-0.0005381989    ,0.0001005764     ,                 0.0 ,             0.0 ,             0.0 ,                 0.0 ,                 0.0 ,        0.0 ,0.01815872489286019    ,            0.0 ,            0.0 ,            0.0 ,              0.0 ,                   0.0 ,  0.0 ,0.0 , 298.2325119761585   ,1.0                ,0.0 ,-106.66862465197833 ,-209.29269837948064 ,0.1268142392902277      ,-104.98626349838413 ,          0.0 ,          0.0 ,-106.66819468460875 ,-209.29315831300045 ,-104.98626349838413 ,-420.94760164910866 , 59.74213862565896   ,140.31588405316438  ,103.47640377406356   ,-101.7987758629961    ,-204.42284445994963 ,0.1268142392902277      ,-100.1164147094019  ,          0.0 ,          0.0 ,-101.79834589562651  ,-204.42335399591764 ,-100.1164147094019  ,-406.3380398905155  , 59.74213862565896   ,135.44603013363331   ,103.47640377406356   ,2.1634622615039255e-07  ,-2.2032198817205983e-07 ,8.279814722736322e-09   ,      0.0 ,      0.0 ,      0.0 ,2.163855397897856e-07   ,-2.2036130181145286e-07 ,      0.0 ,-3.9757529423048274e-09 ,2.183763715934143e-07  ,0.5408137094995621   ,0.22086777517964498     ,-0.006830696938493055   ,-0.014143263144974586   ,3.39329095883271e-05   ,0.18643357094780283    ,0.0 ,22.35079155059254     ,4.8259736060168725      ,        0.0 ,        0.0 , 0.0
 0.0 ,0.0 ,           0.0 ,            0.0 ,            0.0 ,            0.0 ,              0.0 ,                   0.0 , 399.0 ,115.6385 ,-11.45381 ,           0.0 ,           0.0 ,       0.0 ,33.0417        ,-14.75799   ,0.002463782      ,0.0003961921     ,                 0.0 ,             0.0 ,             0.0 ,                 0.0 ,                 0.0 ,        0.0 ,0.49011376216003183    ,            0.0 ,            0.0 ,            0.0 ,              0.0 ,                   0.0 ,  0.0 ,0.0 , 299.5226376039752   ,1.0                ,0.0 ,-107.43077769020944 ,-210.14164921648535 ,0.32354257291001465     ,-105.5842231307017  ,          0.0 ,          0.0 ,-107.42862662887153 ,-210.1437718828072  ,-105.5842231307017  ,-423.1566603455766  , 59.84271521816352   ,141.05223645231763  ,103.65061987406983   ,-102.58519785500829   ,-205.2960790149245  ,0.32354257291001465     ,-100.73864329550054 ,          0.0 ,          0.0 ,-102.58304679367036  ,-205.29820168124633 ,-100.73864329550054 ,-408.6199007295178  , 59.84271521816352   ,136.2066172393805    ,103.65061987406983   ,-7.418126649448405e-07  ,2.612613653641844e-06   ,3.142122760004299e-06   ,      0.0 ,      0.0 ,      0.0 ,3.2335034907315127e-06  ,-1.3627025020345093e-06 ,      0.0 ,1.8708009886970036e-06  ,2.360706452508117e-06  ,0.35499059033266067  ,0.15096812535294568     ,-0.012531087406766719   ,-0.013640756816537895   ,0.0031622035073769713  ,14.15494135443256      ,0.0 ,8.116217549397694     ,2.4170982125123226      ,        0.0 ,        0.0 , 0.0
 0.0 ,0.0 ,           0.0 ,            0.0 ,            0.0 ,            0.0 ,              0.0 ,                   0.0 , 400.0 ,113.8611 ,-11.53863 ,           0.0 ,           0.0 ,       0.0 ,43.23305       ,-15.86193   ,0.00361747       ,0.0004941807     ,                 0.0 ,             0.0 ,             0.0 ,                 0.0 ,                 0.0 ,        0.0 ,2.0224815856925575     ,            0.0 ,            0.0 ,            0.0 ,              0.0 ,                   0.0 ,  0.0 ,0.0 , 301.77197213866395  ,1.0                ,0.0 ,-107.65336970109826 ,-211.54133397480268 ,0.2869119811541419      ,-106.28995578828977 ,          0.0 ,          0.0 ,-107.65124008731928 ,-211.5434342825675  ,-106.28995578828977 ,-425.4846180914154  , 60.38091586262848   ,141.82823934933234  ,104.5828132965606    ,-102.78783063682253   ,-206.67575356814456 ,0.2869119811541419      ,-101.42436559559292 ,          0.0 ,          0.0 ,-102.78564988593874  ,-206.6779050108433  ,-101.42436559559292 ,-410.88793025453356 , 60.38091586262848   ,136.96261009931735   ,104.5828132965606    ,1.8918697253430695e-06  ,-1.4865852838008078e-06 ,3.029919723470577e-06   ,      0.0 ,      0.0 ,      0.0 ,5.853940311310656e-06   ,-5.448655869768394e-06  ,      0.0 ,4.0528444154226197e-07  ,5.739976679270634e-06  ,0.5431306566311833   ,0.21011308705217013     ,-0.009621162975145228   ,-0.013515620566739186   ,0.0                    ,0.016592493313911067   ,0.0 ,28.79652015235009     ,4.865563579615461       ,        0.0 ,        0.0 , 0.0
 0.0 ,0.0 ,           0.0 ,            0.0 ,            0.0 ,            0.0 ,              0.0 ,                   0.0 , 401.0 ,112.1513 ,-11.72737 ,           0.0 ,           0.0 ,       0.0 ,50.53787       ,-16.78116   ,-0.0003582326    ,-0.001151806     ,                 0.0 ,             0.0 ,             0.0 ,                 0.0 ,                 0.0 ,        0.0 ,2.381050835768712      ,            0.0 ,            0.0 ,            0.0 ,              0.0 ,                   0.0 ,  0.0 ,0.0 , 300.30162420581047  ,0.9999999999999999 ,0.0 ,-109.40815708426211 ,-215.67894371718768 ,0.3975336608132042      ,-108.21821780063885 ,          0.0 ,          0.0 ,-109.40432323143128 ,-215.68277757001854 ,-108.21821780063885 ,-433.30522188956064 , 61.70609978155949   ,144.43508823034426  ,106.87811684861677   ,-104.46168010779166   ,-210.7324244088839  ,0.3975336608132042      ,-103.27171863809954 ,          0.0 ,          0.0 ,-104.4577982874612   ,-210.73630575957552 ,-103.27171863809954 ,-418.465845179095   , 61.70609978155949   ,139.48861672779117   ,106.87811684861677   ,2.58604430973201e-06    ,-2.9341699541714673e-06 ,3.895906429642713e-06   ,      0.0 ,      0.0 ,      0.0 ,4.975504938874413e-06   ,-5.3236300574506124e-06 ,      0.0 ,-3.481255966337064e-07  ,5.194728338804138e-06  ,0.5463552489598289   ,0.1434767863479905      ,-0.0015202764662073341  ,-0.0015631032190928486  ,0.0                    ,0.0021822114303906015  ,0.0 ,35.707856448492954    ,4.946474466730609       ,        0.0 ,        0.0 , 0.0
 0.0 ,0.0 ,           0.0 ,            0.0 ,            0.0 ,            0.0 ,              0.0 ,                   0.0 , 402.0 ,110.5062 ,-12.37861 ,           0.0 ,           0.0 ,       0.0 ,52.29105       ,-17.60772   ,-0.006906343     ,-0.0003859571    ,                 0.0 ,             0.0 ,             0.0 ,                 0.0 ,                 0.0 ,        0.0 ,1.011921066143529      ,            0.0 ,            0.0 ,            0.0 ,              0.0 ,                   0.0 ,  0.0 ,0.0 , 304.83235213030343  ,1.0                ,0.0 ,-115.5483701334518  ,-227.52470457812862 ,0.417239993599279       ,-114.09173656270693 ,          0.0 ,          0.0 ,-115.54458387975033 ,-227.52849083183008 ,-114.09173656270693 ,-457.16476400150395 , 65.07774334758042   ,152.38823709142912  ,112.71799124055201   ,-110.59938500195047   ,-222.57576995833062 ,0.417239993599279       ,-109.14277506759731 ,          0.0 ,          0.0 ,-110.59559874824899  ,-222.57955621203206 ,-109.14277506759731 ,-442.31795144875684 , 65.07774334758042   ,147.43934974441456   ,112.71799124055201   ,2.2840890640250952e-07  ,7.239788784034221e-07   ,3.9795271006188755e-06  ,      0.0 ,      0.0 ,      0.0 ,2.5921795537166858e-06  ,-1.6397912710652687e-06 ,      0.0 ,9.52387832078715e-07    ,2.1372055976131243e-06 ,0.5418608842336324   ,0.1364689957543937      ,-0.0015178694080817603  ,-0.0016386641043277148  ,1.1768793073477327e-05 ,0.8613984147519145     ,0.0 ,36.38142123622656     ,4.839074151179542       ,        0.0 ,        0.0 , 0.0
 0.0 ,0.0 ,           0.0 ,            0.0 ,            0.0 ,            0.0 ,              0.0 ,                   0.0 , 403.0 ,108.5847 ,-12.6283  ,           0.0 ,           0.0 ,       0.0 ,53.98659       ,-18.02696   ,-0.001151003     ,0.001265078      ,                 0.0 ,             0.0 ,             0.0 ,                 0.0 ,                 0.0 ,        0.0 ,0.02795851243256192    ,            0.0 ,            0.0 ,            0.0 ,              0.0 ,                   0.0 ,  0.0 ,0.0 , 304.1308901632882   ,1.0                ,0.0 ,-117.6117458974926  ,-232.01772791799817 ,0.022551562664682803    ,-116.26229486666955 ,          0.0 ,          0.0 ,-117.61166529908596 ,-232.01775867236182 ,-116.26229486666955 ,-465.8917714780115  , 66.44547904242577   ,155.29724137263526  ,115.08696210353952   ,-112.63514567658329   ,-227.04122769708886 ,0.022551562664682803    ,-111.28574728565445 ,          0.0 ,          0.0 ,-112.63511771807086  ,-227.0412556556013  ,-111.28574728565445 ,-450.9620736111349  , 66.44547904242577   ,150.320691307683     ,115.08696210353952   ,-2.5064996513676303e-08 ,1.6390798135192887e-08  ,7.238763616575796e-08   ,      0.0 ,      0.0 ,      0.0 ,3.737186398348119e-08   ,-4.604607634122083e-08  ,      0.0 ,-8.674198378483417e-09  ,4.1784080706001086e-08 ,0.32164180774078266  ,0.05527664600692647     ,-0.00014778207541154016 ,-0.00016881495903230297 ,8.461868655639933e-05  ,30.747533362604987     ,0.0 ,22.60037049796726     ,2.4924994949388037      ,        0.0 ,        0.0 , 0.0
 0.0 ,0.0 ,           0.0 ,            0.0 ,            0.0 ,            0.0 ,              0.0 ,                   0.0 , 404.0 ,106.6264 ,-12.78721 ,           0.0 ,           0.0 ,       0.0 ,54.50957       ,-18.23817   ,0.002325115      ,-2.080525e-05    ,                 0.0 ,             0.0 ,             0.0 ,                 0.0 ,                 0.0 ,        0.0 ,1.0007943670800261     ,            0.0 ,            0.0 ,            0.0 ,              0.0 ,                   0.0 ,  0.0 ,0.0 , 305.393436055081    ,1.0                ,0.0 ,-118.99642829839757 ,-234.82626057419046 ,0.17795579510204418     ,-117.67881631508868 ,          0.0 ,          0.0 ,-118.99597080285626 ,-234.82666866464342 ,-117.67881631508868 ,-471.5015062980633  , 67.25848449947016   ,157.16715227117942  ,116.4951040454531    ,-114.02173482018614   ,-229.85166709597902 ,0.17795579510204418     ,-112.70422283687726 ,          0.0 ,          0.0 ,-114.02137732464485  ,-229.85207407604537 ,-112.70422283687726 ,-456.5776259428657  , 67.25848449947016   ,152.19250938787962   ,116.4951040454531    ,-4.2757082917788195e-07 ,5.206242137777987e-07   ,1.9298515409893204e-06  ,      0.0 ,      0.0 ,      0.0 ,1.1216652727285574e-06  ,-1.0286119926496237e-06 ,      0.0 ,9.305363202254202e-08   ,1.0755348961328688e-06 ,0.3246163503153906   ,0.05901845703397036     ,-0.0001792191643911375  ,-0.00023639055574588034 ,8.387348693662586e-05  ,30.476829725700995     ,0.0 ,21.526868172585477    ,2.5124512747165912      ,        0.0 ,        0.0 , 0.0
 0.0 ,0.0 ,           0.0 ,            0.0 ,            0.0 ,            0.0 ,              0.0 ,                   0.0 , 405.0 ,104.6714 ,-12.904   ,           0.0 ,           0.0 ,       0.0 ,54.56191       ,-18.36019   ,0.001190307      ,0.0003396549     ,                 0.0 ,             0.0 ,             0.0 ,                 0.0 ,                 0.0 ,        0.0 ,2.502222544096829      ,            0.0 ,            0.0 ,            0.0 ,              0.0 ,                   0.0 ,  0.0 ,0.0 , 305.7034379432424   ,1.0                ,0.0 ,-119.74507139439275 ,-236.786866713643   ,0.31908193369075166     ,-118.66433629730821 ,          0.0 ,          0.0 ,-119.74417185138256 ,-236.78776625665319 ,-118.66433629730821 ,-475.19627440534396 , 67.88902655484392   ,158.39875828328428  ,117.58723284852604   ,-114.77074525423183   ,-231.81264057348207 ,0.31908193369075166     ,-113.69011004445996 ,          0.0 ,          0.0 ,-114.76989537627989  ,-231.81354011649228 ,-113.69011004445996 ,-460.27354553723205 , 67.88902655484392   ,153.4244819208689    ,117.58723284852604   ,1.1210075944581624e-06  ,-2.8134372116846527e-07 ,3.3459841542047708e-06  ,      0.0 ,      0.0 ,      0.0 ,2.8570976919074454e-06  ,-2.017433918849364e-06  ,      0.0 ,8.396641216149883e-07   ,2.454336150721304e-06  ,0.32126720418338583  ,0.05803011369625592     ,-0.000144664497064578   ,-0.00023300372016732976 ,4.985554281074793e-05  ,30.255116287362963     ,0.0 ,21.097021438976117    ,2.466227234488214       ,        0.0 ,        0.0 , 0.0
 0.0 ,0.0 ,           0.0 ,            0.0 ,            0.0 ,            0.0 ,              0.0 ,                   0.0 , 406.0 ,102.7318 ,-12.98618 ,           0.0 ,           0.0 ,       0.0 ,54.48251       ,-18.43443   ,0.001755614      ,0.0003614645     ,                 0.0 ,             0.0 ,             0.0 ,                 0.0 ,                 0.0 ,        0.0 ,2.0584825373416127     ,            0.0 ,            0.0 ,            0.0 ,              0.0 ,                   0.0 ,  0.0 ,0.0 , 256.2875347226786   ,1.0                ,0.0 ,-120.19887761729001 ,-237.95203940767735 ,0.18063962856134858     ,-119.2123719648329  ,          0.0 ,          0.0 ,-120.19836003371583 ,-237.95255699125153 ,-119.2123719648329  ,-477.36331194485206 , 68.27245508418304   ,159.12110515385564  ,118.25134707347661   ,-115.23379372674144   ,-232.98703256207693 ,0.18063962856134858     ,-114.24733983264173 ,          0.0 ,          0.0 ,-115.23327614316726  ,-232.98757310070295 ,-114.24733983264173 ,-462.468189076512   , 68.27245508418304   ,154.15604654989784   ,118.25134707347661   ,1.1632210699571998e-06  ,-5.930647796962295e-07  ,2.3353808190924986e-06  ,      0.0 ,      0.0 ,      0.0 ,2.2391709245979156e-06  ,-1.6690148366296714e-06 ,      0.0 ,5.701562902609701e-07   ,1.9742588174611983e-06 ,0.2163978632408583   ,0.017956030439427006    ,-8.481127493338228e-05  ,-7.954196332856248e-06  ,9.761984227582148e-05  ,37.75529297945797      ,0.0 ,14.582949608315358    ,1.144214070857335       ,        0.0 ,        0.0 , 0.0
 0.0 ,0.0 ,           0.0 ,            0.0 ,            0.0 ,            0.0 ,              0.0 ,                   0.0 , 407.0 ,100.8279 ,-13.02526 ,           0.0 ,           0.0 ,       0.0 ,54.562         ,-18.48146   ,0.002676913      ,-7.965601e-05    ,                 0.0 ,             0.0 ,             0.0 ,                 0.0 ,                 0.0 ,        0.0 ,0.6334355077908095     ,            0.0 ,            0.0 ,            0.0 ,              0.0 ,                   0.0 ,  0.0 ,0.0 , 256.66777067339495  ,1.0                ,0.0 ,-120.36107126593643 ,-237.89951152978608 ,0.03006266677236477     ,-119.20707746350264 ,          0.0 ,          0.0 ,-120.36066102998723 ,-237.89990065121836 ,-119.20707746350264 ,-477.46771371952775 , 68.19813598451364   ,159.15587971490274  ,118.12264592037565   ,-115.39458173812757   ,-232.93304742715765 ,0.03006266677236477     ,-114.2406133608742  ,          0.0 ,          0.0 ,-115.3941926166953   ,-232.93349000889256 ,-114.2406133608742  ,-462.56829598646203 , 68.19813598451364   ,154.1894156122743    ,118.12264592037565   ,5.584774946860456e-07   ,-2.2530604233060526e-07 ,6.640555690922479e-07   ,      0.0 ,      0.0 ,      0.0 ,6.802214766865772e-07   ,-3.4704981318596766e-07 ,      0.0 ,3.3317166350060956e-07  ,5.22562757120153e-07   ,0.45706342095042096  ,0.08885505278580087     ,-3.036227600536369e-05  ,-2.6024967478890953e-05 ,8.812929099246138e-06  ,12.997108720128686     ,0.0 ,40.73378718587135     ,3.9142049678757482      ,        0.0 ,        0.0 , 0.0
 0.0 ,0.0 ,           0.0 ,            0.0 ,            0.0 ,            0.0 ,              0.0 ,                   0.0 , 408.0 ,99.01971 ,-13.01212 ,           0.0 ,           0.0 ,       0.0 ,54.99909       ,-18.51203   ,0.009147675      ,0.002080925      ,                 0.0 ,             0.0 ,             0.0 ,                 0.0 ,                 0.0 ,        0.0 ,3.4088713299911833     ,            0.0 ,            0.0 ,            0.0 ,              0.0 ,                   0.0 ,  0.0 ,0.0 , 256.7063042153666   ,1.0                ,0.0 ,-120.025509490284   ,-236.28748887653944 ,0.032766204497651524    ,-118.58186649548585 ,          0.0 ,          0.0 ,-120.0239573504873  ,-236.28900787925684 ,-118.58186649548585 ,-474.89487592675164 , 67.54712539493332   ,158.2982772417433   ,116.99509237393713   ,-115.0536789401964    ,-231.31565832645185 ,0.032766204497651524    ,-113.61003594539824 ,          0.0 ,          0.0 ,-115.05215993747905  ,-231.31715135338158 ,-113.61003594539824 ,-459.97937321204654 , 67.54712539493332   ,153.32644669165572   ,116.99509237393713   ,5.240448289690942e-07   ,-7.295743012287903e-07  ,1.5917401671203274e-06  ,      0.0 ,      0.0 ,      0.0 ,1.8244926964745488e-06  ,-2.030021685831895e-06  ,      0.0 ,-2.0552903746201885e-07 ,2.0525345904697595e-06 ,0.1701589052980516   ,0.011340547477636614    ,-2.518689566609288e-05  ,-2.33468276008169e-06   ,3.095290722237658e-05  ,44.50636201788943      ,0.0 ,9.758518216605186     ,0.7434006485179855      ,        0.0 ,        0.0 , 0.0
 0.0 ,0.0 ,           0.0 ,            0.0 ,            0.0 ,            0.0 ,              0.0 ,                   0.0 , 409.0 ,97.47155 ,-12.93241 ,           0.0 ,           0.0 ,       0.0 ,55.96108       ,-18.52851   ,0.01704227       ,0.0001277924     ,                 0.0 ,             0.0 ,             0.0 ,                 0.0 ,                 0.0 ,        0.0 ,3.2592422955005502     ,            0.0 ,            0.0 ,            0.0 ,              0.0 ,                   0.0 ,  0.0 ,0.0 , 263.8590434812529   ,1.0                ,0.0 ,-120.68211244083989 ,-234.00421039740002 ,-0.7362494140917166     ,-117.85217882654545 ,          0.0 ,          0.0 ,-120.67651629648722 ,-234.00986095649262 ,-117.85217882654545 ,-472.5385104942652  , 66.26626714481787   ,157.51286437247018  ,114.77654418987807   ,-115.70630178763415   ,-229.0283997441943  ,-0.7362494140917166     ,-112.8763681733397  ,          0.0 ,          0.0 ,-115.7006882664268   ,-229.0340329264322  ,-112.8763681733397  ,-457.61110674305337 , 66.26626714481787   ,152.53705371926443   ,114.77654418987807   ,-1.7903918565699845e-06 ,2.992341356271833e-08   ,5.984994362461608e-07   ,      0.0 ,      0.0 ,      0.0 ,4.7189688337453473e-07  ,-2.232365571120746e-06  ,      0.0 ,-1.7604687783388536e-06 ,1.5038582068261124e-06 ,0.4788559640831692   ,0.06612872499093483     ,-1.1858120099560992e-05 ,-1.87008640849811e-05   ,4.20105966624424e-06   ,5.43156701895589       ,0.0 ,51.594157841601415    ,4.1178643156190144      ,        0.0 ,        0.0 , 0.0
 0.0 ,0.0 ,           0.0 ,            0.0 ,            0.0 ,            0.0 ,              0.0 ,                   0.0 , 410.0 ,96.44501 ,-14.24248 ,           0.0 ,           0.0 ,       0.0 ,43.131         ,-18.55558   ,0.02129808       ,-0.0005723342    ,                 0.0 ,             0.0 ,             0.0 ,                 0.0 ,                 0.0 ,        0.0 ,2.7484426866588283     ,            0.0 ,            0.0 ,            0.0 ,              0.0 ,                   0.0 ,  0.0 ,0.0 , 236.4554144299535   ,1.0                ,0.0 ,-131.09390537046454 ,-256.4620949073087  ,-0.7078522103352394     ,-128.90327903872728 ,          0.0 ,          0.0 ,-131.08900064930927 ,-256.46706435799064 ,-128.90327903872728 ,-516.4593440460272  , 73.0305832999861    ,172.15311790606094  ,126.49267426611667   ,-126.13956906291145   ,-251.50775859975568 ,-0.7078522103352394     ,-123.94897800164755 ,          0.0 ,          0.0 ,-126.13464455485854  ,-251.51270826353993 ,-123.94897800164755 ,-501.5963506069437  , 73.0305832999861    ,167.19881686898123   ,126.49267426611667   ,-3.454294427479794e-07  ,-6.918384313811519e-09  ,2.4323976267305814e-06  ,      0.0 ,      0.0 ,      0.0 ,1.3849024558490595e-06  ,-1.7372502597058037e-06 ,      0.0 ,-3.523478441642718e-07  ,1.6122550632180914e-06 ,0.47826548069753555  ,0.09746521874143912     ,-2.786294944881928e-05  ,-2.1002633022546707e-05 ,4.783715993958179e-06  ,6.184896885122439      ,0.0 ,36.73479253979406     ,3.977406338241614       ,        0.0 ,        0.0 , 0.0
 0.0 ,0.0 ,           0.0 ,            0.0 ,            0.0 ,            0.0 ,              0.0 ,                   0.0 , 411.0 ,7.386057 ,-22.21552 ,           0.0 ,           0.0 ,       0.0 ,-34.70315      ,-18.7452    ,-0.0186091       ,0.003495279      ,                 0.0 ,             0.0 ,             0.0 ,                 0.0 ,                 0.0 ,        0.0 ,1.9760183396243896     ,            0.0 ,            0.0 ,            0.0 ,              0.0 ,                   0.0 ,  0.0 ,0.0 , 326.41759232390507  ,1.0                ,0.0 ,-185.3896087025618  ,-374.01701210170427 ,-9.126594608197287      ,-186.83209075581533 ,          0.0 ,          0.0 ,-184.94899200974314 ,-374.4576782004527  ,-186.83209075581533 ,-746.2387609660111  ,108.87524057542038   ,248.7462865853285   ,188.57745857638852   ,-217.844715930951     ,-406.4721193300935  ,-9.126594608197287      ,-219.28719675229385 ,          0.0 ,          0.0 ,-217.4040498322026   ,-406.9127360229121  ,-219.28719675229385 ,-843.6040320133383  ,108.87524057542038   ,281.20134440778793   ,188.57745857638852   ,-2.5922381318952383e-06 ,-2.082325280147494e-05  ,-5.0457776002919774e-06 ,      0.0 ,      0.0 ,      0.0 ,-2.2466958464397892e-06 ,-2.116879755744573e-05  ,      0.0 ,-2.341549340410437e-05  ,1.1635001205964158e-05 ,0.7960652594181394   ,0.5031128733728062      ,-0.0012788335713021786  ,-0.00028643875019869735 ,0.002827878328010511   ,-12.02300688363544     ,0.0 ,-20.430657208120685   ,-20.430657208120685     ,        0.0 ,        0.0 , 0.0
 0.0 ,0.0 ,           0.0 ,            0.0 ,            0.0 ,            0.0 ,              0.0 ,                   0.0 , 412.0 ,9.207486 ,-21.97258 ,           0.0 ,           0.0 ,       0.0 ,-32.46449      ,-18.72613   ,-0.01443238      ,0.002314207      ,                 0.0 ,             0.0 ,             0.0 ,                 0.0 ,                 0.0 ,        0.0 ,2.4811380498578863     ,            0.0 ,            0.0 ,            0.0 ,              0.0 ,                   0.0 ,  0.0 ,0.0 , 327.4144382047662   ,1.0                ,0.0 ,-183.93086433644248 ,-369.3357063416656  ,-9.361236868732734      ,-184.61319777481538 ,          0.0 ,          0.0 ,-183.4594031010722  ,-369.8072169800092  ,-184.61319777481538 ,-737.8798672113126  ,107.25889263820504   ,245.95995615097448  ,185.77784157825954   ,-214.0998003280732    ,-399.50474109168556 ,-9.361236868732734      ,-214.78218436347288 ,          0.0 ,          0.0 ,-213.62833909270302  ,-399.97615297163986 ,-214.78218436347288 ,-828.3866764278157  ,107.25889263820504   ,276.12889214260525   ,185.77784157825954   ,-3.469408385556713e-06  ,-2.1217264388542506e-05 ,-5.285909814254247e-06  ,      0.0 ,      0.0 ,      0.0 ,-3.079505671611746e-06  ,-2.1607170052347463e-05 ,      0.0 ,-2.4686674231356198e-05 ,1.1710224213991059e-05 ,0.9949946207825305   ,0.007760761131204447    ,-3.211245659738426e-05  ,1.0878939947243964e-07  ,0.004655401046426397   ,-29.66886631995984     ,0.0 ,-0.5000678478657188   ,-0.5000678478657188     ,        0.0 ,        0.0 , 0.0
 0.0 ,0.0 ,           0.0 ,            0.0 ,            0.0 ,            0.0 ,              0.0 ,                   0.0 , 413.0 ,11.01847 ,-21.67127 ,           0.0 ,           0.0 ,       0.0 ,-29.55849      ,-18.71542   ,-0.009091381     ,0.001835179      ,                 0.0 ,             0.0 ,             0.0 ,                 0.0 ,                 0.0 ,        0.0 ,2.509689396054468      ,            0.0 ,            0.0 ,            0.0 ,              0.0 ,                   0.0 ,  0.0 ,0.0 , 328.8644686963367   ,1.0                ,0.0 ,-181.84539907057945 ,-365.1420424571912  ,-9.646535820209905      ,-182.3779527116626  ,          0.0 ,          0.0 ,-181.33910328276423 ,-365.64833824500647 ,-182.3779527116626  ,-729.3653949249594  ,106.11342554984601   ,243.1217652034952   ,183.79385041904115   ,-208.81720738099074   ,-392.11385145312863 ,-9.646535820209905      ,-209.3497617076     ,          0.0 ,          0.0 ,-208.31091159317555  ,-392.62014655541776 ,-209.3497617076     ,-810.2808198561934  ,106.11342554984601   ,270.0935735139065    ,183.79385041904115   ,-1.9113906070504424e-06 ,-2.3358300192431018e-05 ,-6.44990264970386e-06   ,      0.0 ,      0.0 ,      0.0 ,-1.4354340631124363e-06 ,-2.3834253788530365e-05 ,      0.0 ,-2.5269686814378975e-05 ,1.3366581761885336e-05 ,1.0                  ,-0.0023811006785396218  ,-5.527625727844818e-06  ,0.0                     ,0.002381117589435222   ,-26.971813460920302    ,0.0 ,0.0                   ,0.0                     ,        0.0 ,        0.0 , 0.0
 0.0 ,0.0 ,           0.0 ,            0.0 ,            0.0 ,            0.0 ,              0.0 ,                   0.0 , 414.0 ,12.82169 ,-21.30325 ,           0.0 ,           0.0 ,       0.0 ,-25.93562      ,-18.70969   ,-0.005035996     ,0.001515683      ,                 0.0 ,             0.0 ,             0.0 ,                 0.0 ,                 0.0 ,        0.0 ,1.0155806153388713     ,            0.0 ,            0.0 ,            0.0 ,              0.0 ,                   0.0 ,  0.0 ,0.0 , 331.0944012529832   ,1.0                ,0.0 ,-179.2915958188112  ,-359.5442855879848  ,-9.572125302904247      ,-179.90592654635435 ,          0.0 ,          0.0 ,-178.78400531349297 ,-360.0518768005106  ,-179.90592654635435 ,-718.7418568205159  ,104.33278208579888   ,239.58061969526162  ,180.70971362013367   ,-203.91511737382223   ,-384.16780714299585 ,-9.572125302904247      ,-204.52944739415778 ,          0.0 ,          0.0 ,-203.40752616129643  ,-384.67539764831406 ,-204.52944739415778 ,-792.6123719109759  ,104.33278208579888   ,264.20414054306514   ,180.70971362013367   ,-1.2447155882606197e-06 ,-1.2670767055685014e-05 ,-3.035977031544662e-06  ,      0.0 ,      0.0 ,      0.0 ,-1.0464788162252918e-06 ,-1.2869005319266923e-05 ,      0.0 ,-1.3915486166653445e-05 ,7.147070089766418e-06  ,0.8013526934634544   ,0.48680378115846623     ,-0.0001077463811773034  ,-0.005798122682986949   ,0.001870249434901187   ,-8.242077996830924     ,0.0 ,-16.375644741832634   ,-16.375644741832634     ,        0.0 ,        0.0 , 0.0
 0.0 ,0.0 ,           0.0 ,            0.0 ,            0.0 ,            0.0 ,              0.0 ,                   0.0 , 415.0 ,14.64541 ,-20.9813  ,           0.0 ,           0.0 ,       0.0 ,-22.73168      ,-18.70813   ,-0.003807598     ,0.001301202      ,                 0.0 ,             0.0 ,             0.0 ,                 0.0 ,                 0.0 ,        0.0 ,0.7557608385331991     ,            0.0 ,            0.0 ,            0.0 ,              0.0 ,                   0.0 ,  0.0 ,0.0 , 331.6742689530839   ,1.0                ,0.0 ,-177.97811184935645 ,-356.9763483441524  ,-9.525107310593254      ,-178.38070396244228 ,          0.0 ,          0.0 ,-177.47210788603041 ,-357.48237812665207 ,-178.38070396244228 ,-713.3351637014122  ,103.66810153023023   ,237.77839665837493  ,179.55837867826443   ,-198.7194983600246    ,-377.71775973327567 ,-9.525107310593254      ,-199.1220646539369  ,          0.0 ,          0.0 ,-198.21346857752496  ,-378.2237388181466  ,-199.1220646539369  ,-775.5593227472372  ,103.66810153023023   ,258.5197573498695    ,179.55837867826443   ,-1.3478253728227372e-06 ,-1.804381080302612e-05  ,-4.381512780336286e-06  ,      0.0 ,      0.0 ,      0.0 ,-1.064293859632518e-06  ,-1.832733955136472e-05  ,      0.0 ,-1.9391634922518916e-05 ,1.028978043783174e-05  ,0.7992744956042594   ,0.49193263654211655     ,-0.0005903810683608143  ,-0.0028941825422883825  ,0.0010911858487874825  ,-6.252872501697164     ,0.0 ,-14.485063099885952   ,-14.485063099885952     ,        0.0 ,        0.0 , 0.0
 0.0 ,0.0 ,           0.0 ,            0.0 ,            0.0 ,            0.0 ,              0.0 ,                   0.0 , 416.0 ,16.48497 ,-20.70296 ,           0.0 ,           0.0 ,       0.0 ,-19.94219      ,-18.70874   ,-0.002681477     ,0.001054265      ,                 0.0 ,             0.0 ,             0.0 ,                 0.0 ,                 0.0 ,        0.0 ,1.2546618477386053     ,            0.0 ,            0.0 ,            0.0 ,              0.0 ,                   0.0 ,  0.0 ,0.0 , 332.58997477798283  ,1.0                ,0.0 ,-177.13277953559063 ,-354.58856241851504 ,-9.365648037450768      ,-177.0663216543229  ,          0.0 ,          0.0 ,-176.6395385802123  ,-355.0818045963168  ,-177.0663216543229  ,-708.7876142196403  ,102.90113268914631   ,236.26255494361732  ,178.2299184794019    ,-194.58642207477595   ,-372.0422798126734  ,-9.365648037450768      ,-194.5199884372697  ,          0.0 ,          0.0 ,-194.09320536315903  ,-372.53547137926347 ,-194.5199884372697  ,-761.148690324719   ,102.90113268914631   ,253.71622172656404   ,178.2299184794019    ,-2.2099191001225873e-06 ,-2.241954318928172e-05  ,-5.416571131271426e-06  ,      0.0 ,      0.0 ,      0.0 ,-1.8519352102226888e-06 ,-2.27775238553914e-05   ,      0.0 ,-2.462946055629039e-05  ,1.2653022817336983e-05 ,0.6947130718526411   ,0.7480085786706538      ,-0.0020215298198168106  ,-3.416236687622018e-06  ,0.0005412067232561388  ,-3.1009929981647524    ,0.0 ,-14.350667901134026   ,-14.350667901134026     ,        0.0 ,        0.0 , 0.0
 0.0 ,0.0 ,           0.0 ,            0.0 ,            0.0 ,            0.0 ,              0.0 ,                   0.0 , 417.0 ,18.33268 ,-20.4519  ,           0.0 ,           0.0 ,       0.0 ,-17.41822      ,-18.71008   ,-0.001161619     ,0.0007501535     ,                 0.0 ,             0.0 ,             0.0 ,                 0.0 ,                 0.0 ,        0.0 ,2.0098491948395405     ,            0.0 ,            0.0 ,            0.0 ,              0.0 ,                   0.0 ,  0.0 ,0.0 , 333.5065734095597   ,1.0                ,0.0 ,-176.41176770930028 ,-351.7650465376938  ,-8.98221399960692       ,-175.80273003960565 ,          0.0 ,          0.0 ,-175.95281597389427 ,-352.2239993079419  ,-175.80273003960565 ,-703.9795452715192  ,101.81359559952371   ,234.6598652629801   ,176.3463020773235    ,-191.6742575103067    ,-367.0275858712018  ,-8.98221399960692       ,-191.065269323191   ,          0.0 ,          0.0 ,-191.21530478998122  ,-367.4864881240288  ,-191.065269323191   ,-749.7670622372011  ,101.81359559952371   ,249.922354079067     ,176.3463020773235    ,-3.2919917870116695e-06 ,-2.000760291531271e-05  ,-4.199269864587631e-06  ,      0.0 ,      0.0 ,      0.0 ,-3.026355652774644e-06  ,-2.027324010814568e-05  ,      0.0 ,-2.3299593722521995e-05 ,1.0956018445730198e-05 ,0.5906874830967611   ,1.0                     ,-0.0039040331895464804  ,-6.84771328471677e-06   ,0.0                    ,0.0039040948737234047  ,0.0 ,-15.26248600049693    ,-15.26248600049693      ,        0.0 ,        0.0 , 0.0
 0.0 ,0.0 ,           0.0 ,            0.0 ,            0.0 ,            0.0 ,              0.0 ,                   0.0 , 418.0 ,20.17901 ,-20.20202 ,           0.0 ,           0.0 ,       0.0 ,-14.90707      ,-18.71131   ,0.0001959622     ,0.0003291137     ,                 0.0 ,             0.0 ,             0.0 ,                 0.0 ,                 0.0 ,        0.0 ,2.4986897057188795     ,            0.0 ,            0.0 ,            0.0 ,              0.0 ,                   0.0 ,  0.0 ,0.0 , 334.36919835781873  ,1.0                ,0.0 ,-175.5574789972211  ,-349.37763273165467 ,-8.609879550996713      ,-174.76697352132692 ,          0.0 ,          0.0 ,-175.1318634201099  ,-349.8031485613584  ,-174.76697352132692 ,-699.7020852502027  ,100.95203357283548   ,233.23399525179587  ,174.85405740582115   ,-188.5435883704622    ,-362.36374210489583 ,-8.609879550996713      ,-187.7531320152275  ,          0.0 ,          0.0 ,-188.11807254075853  ,-362.78930730785146 ,-187.7531320152275  ,-738.6604622379931  ,100.95203357283548   ,246.22015374569645   ,174.85405740582115   ,-3.953707697327685e-06  ,-1.7804787683420453e-05 ,-3.380250370909253e-06  ,      0.0 ,      0.0 ,      0.0 ,-3.746660347162319e-06  ,-1.801183296857442e-05  ,      0.0 ,-2.1758496801891486e-05 ,9.512408589114141e-06  ,0.7980445882329206   ,0.4908489316052899      ,-0.0017379424879911734  ,1.525892201719208e-05   ,0.0028964406536268355  ,-1.621938132955008     ,0.0 ,-11.36238497170465    ,-11.36238497170465      ,        0.0 ,        0.0 , 0.0
 0.0 ,0.0 ,           0.0 ,            0.0 ,            0.0 ,            0.0 ,              0.0 ,                   0.0 , 419.0 ,22.01894 ,-19.92403 ,           0.0 ,           0.0 ,       0.0 ,-12.11972      ,-18.71206   ,0.001760866      ,0.000216512      ,                 0.0 ,             0.0 ,             0.0 ,                 0.0 ,                 0.0 ,        0.0 ,1.0175668152729656     ,            0.0 ,            0.0 ,            0.0 ,              0.0 ,                   0.0 ,  0.0 ,0.0 , 334.8761420467724   ,0.9999999999999999 ,0.0 ,-173.54444425413612 ,-346.1725734130678  ,-8.133662755263657      ,-173.2478677419106  ,          0.0 ,          0.0 ,-173.16201475127866 ,-346.55495305266896 ,-173.2478677419106  ,-692.9648355458584  ,100.08384749846388   ,230.98831117189647  ,173.350284981021     ,-184.60905584203928   ,-357.2372348642273  ,-8.133662755263657      ,-184.31243020815452 ,          0.0 ,          0.0 ,-184.2266762024381   ,-357.6196145038285  ,-184.31243020815452 ,-726.1586717927618  ,100.08384749846388   ,242.05287363814034   ,173.350284981021     ,-1.2026277046298345e-06 ,-7.553861498813108e-06  ,-1.6414306068806912e-06 ,      0.0 ,      0.0 ,      0.0 ,-1.0982552026690883e-06 ,-7.658231935187692e-06  ,      0.0 ,-8.756489233895477e-06  ,4.141024326979688e-06  ,0.7901160253551484   ,0.5086239625950723      ,-0.004025538691546203   ,-1.626528852297615e-05  ,0.0020437459298558018  ,-10.98619706276778     ,0.0 ,-0.07635679090305054  ,-0.07643128660800608    ,        0.0 ,        0.0 , 0.0
 0.0 ,0.0 ,           0.0 ,            0.0 ,            0.0 ,            0.0 ,              0.0 ,                   0.0 , 420.0 ,23.85054 ,-19.56342 ,           0.0 ,           0.0 ,       0.0 ,-8.513375      ,-18.71208   ,-0.0005553206    ,0.0005553693     ,                 0.0 ,             0.0 ,             0.0 ,                 0.0 ,                 0.0 ,        0.0 ,1.4891928224437332     ,            0.0 ,            0.0 ,            0.0 ,              0.0 ,                   0.0 ,  0.0 ,0.0 , 334.5162777946789   ,1.0                ,0.0 ,-172.27349867620907 ,-343.5125951970785  ,-7.588368182540435      ,-171.8235337938027  ,          0.0 ,          0.0 ,-171.93757967312544 ,-343.84846574091404 ,-171.8235337938027  ,-687.6095792078422  , 99.28574259302815   ,229.2031920421128   ,171.96798238637334   ,-179.2828401011305    ,-350.5219366219999  ,-7.588368182540435      ,-178.8328752187241  ,          0.0 ,          0.0 ,-178.9469210980468   ,-350.85780716583554 ,-178.8328752187241  ,-708.6376493203848  , 99.28574259302815   ,236.21253346703418   ,171.96798238637334   ,-2.2469254254984732e-06 ,-1.4971975317199978e-05 ,-3.963838268392248e-06  ,      0.0 ,      0.0 ,      0.0 ,-1.9084882121790645e-06 ,-1.5310412013724517e-05 ,      0.0 ,-1.7218901751899138e-05 ,8.343643243154963e-06  ,0.6496544427979887   ,0.5150038185964434      ,-0.001895676722978998   ,-2.7506015205161553e-05 ,0.00040415245485504405 ,2.387393268679851      ,0.0 ,-8.709242601138255    ,-8.709242601138255      ,        0.0 ,        0.0 , 0.0
 0.0 ,0.0 ,           0.0 ,            0.0 ,            0.0 ,            0.0 ,              0.0 ,                   0.0 , 421.0 ,25.66973 ,-19.03405 ,           0.0 ,           0.0 ,       0.0 ,-3.226496      ,-18.7114    ,-0.005696832     ,-0.0004401148    ,                 0.0 ,             0.0 ,             0.0 ,                 0.0 ,                 0.0 ,        0.0 ,1.9774872403422366     ,            0.0 ,            0.0 ,            0.0 ,              0.0 ,                   0.0 ,  0.0 ,0.0 , 337.6414618113699   ,1.0                ,0.0 ,-170.34169827526063 ,-338.7341163233105  ,-7.129828760387172      ,-169.71413810491254 ,          0.0 ,          0.0 ,-170.04024230096874 ,-339.0355235078721  ,-169.71413810491254 ,-678.7899029793904  , 97.66386946430534   ,226.2633340150091   ,169.15878345218363   ,-172.49351427679645   ,-340.8859332592094  ,-7.129828760387172      ,-171.86600344799191 ,          0.0 ,          0.0 ,-172.19205830250456  ,-341.18733950940793 ,-171.86600344799191 ,-685.2454509839978  , 97.66386946430534   ,228.4151500165449    ,169.15878345218363   ,-3.002503499096465e-06  ,-1.2509937277819883e-05 ,-2.683177319124101e-06  ,      0.0 ,      0.0 ,      0.0 ,-2.7497373904146917e-06 ,-1.2762707850193564e-05 ,      0.0 ,-1.551244077309085e-05  ,6.7417688476323725e-06 ,0.6490039194292485   ,0.4970690502147079      ,-0.0028081528807681637  ,2.133816613199396e-05   ,0.00041470132528045585 ,2.4505713168693437     ,0.0 ,-3.8415497576078312   ,-3.896097033863174      ,        0.0 ,        0.0 , 0.0
 0.0 ,0.0 ,           0.0 ,            0.0 ,            0.0 ,            0.0 ,              0.0 ,                   0.0 , 422.0 ,27.47862 ,-18.28627 ,           0.0 ,           0.0 ,       0.0 ,4.239532       ,-18.71023   ,-0.0115529       ,0.0003947967     ,                 0.0 ,             0.0 ,             0.0 ,                 0.0 ,                 0.0 ,        0.0 ,2.3991353469851235     ,            0.0 ,            0.0 ,            0.0 ,              0.0 ,                   0.0 ,  0.0 ,0.0 , 340.9824996713262   ,1.0                ,0.0 ,-165.47833267116917 ,-326.7073511152713  ,-6.549180281636126      ,-163.88438094230207 ,          0.0 ,          0.0 ,-165.21261628781448 ,-326.9731205777448  ,-163.88438094230207 ,-656.0700647287425  , 93.77906411780447   ,218.69005374168978  ,162.4301237199366    ,-166.67245913433226   ,-327.9014810821077  ,-6.549180281636126      ,-165.0785543263464  ,          0.0 ,          0.0 ,-166.40674275097757  ,-328.1672470409079  ,-165.0785543263464  ,-659.6524945427864  , 93.77906411780447   ,219.88418020485287   ,162.4301237199366    ,-3.386439142581757e-06  ,-6.948612467134486e-06  ,-1.7082569424418269e-06 ,      0.0 ,      0.0 ,      0.0 ,-1.8361295944028386e-06 ,-8.498923373364397e-06  ,      0.0 ,-1.0335052128500501e-05 ,4.521083864336661e-06  ,0.5821443815330841   ,0.6136696834193208      ,-0.00268469690408645    ,1.842385253153288e-05   ,0.0                    ,0.0026896890552037646  ,0.0 ,5.799385703183851     ,-1.194137566128552      ,        0.0 ,        0.0 , 0.0
 0.0 ,0.0 ,           0.0 ,            0.0 ,            0.0 ,            0.0 ,              0.0 ,                   0.0 , 423.0 ,29.49193 ,-17.96854 ,           0.0 ,           0.0 ,       0.0 ,7.407486       ,-18.70929   ,-0.006712337     ,0.0009467073     ,                 0.0 ,             0.0 ,             0.0 ,                 0.0 ,                 0.0 ,        0.0 ,2.0                    ,            0.0 ,            0.0 ,            0.0 ,              0.0 ,                   0.0 ,  0.0 ,0.0 , 338.3133767822099   ,1.0                ,0.0 ,-164.61701895814122 ,-324.1608226921204  ,-5.9717180274981505     ,-162.56788033450084 ,          0.0 ,          0.0 ,-164.39320768452473 ,-324.38468227098485 ,-162.56788033450084 ,-651.345721015341   , 92.90265246424954   ,217.11523985489325  ,160.912135114153     ,-162.1553830740013    ,-321.6991370520713  ,-5.9717180274981505     ,-160.10624445036092 ,          0.0 ,          0.0 ,-161.93157276980625  ,-321.9229956615142  ,-160.10624445036092 ,-643.9607645764335  , 92.90265246424954   ,214.6536039707533    ,160.912135114153     ,-2.649882800182098e-06  ,-5.872448773500307e-06  ,-2.094836977199493e-06  ,      0.0 ,      0.0 ,      0.0 ,-1.0729771669135052e-06 ,-7.449354868625223e-06  ,      0.0 ,-8.522327563961201e-06  ,4.055248985160898e-06  ,0.7886193399208536   ,0.12389625651743107     ,-3.0113093737368837e-05 ,8.937750945069849e-07   ,0.0020005054124442975  ,0.28312263086410033    ,0.0 ,8.946827501144673     ,2.331789476036586       ,        0.0 ,        0.0 , 0.0
 0.0 ,0.0 ,           0.0 ,            0.0 ,            0.0 ,            0.0 ,              0.0 ,                   0.0 , 424.0 ,31.50474 ,-17.73726 ,           0.0 ,           0.0 ,       0.0 ,9.705811       ,-18.70784   ,-0.002282559     ,-6.865559e-05    ,                 0.0 ,             0.0 ,             0.0 ,                 0.0 ,                 0.0 ,        0.0 ,1.5010863303844273     ,            0.0 ,            0.0 ,            0.0 ,              0.0 ,                   0.0 ,  0.0 ,0.0 , 340.7516149043023   ,1.0                ,0.0 ,-163.2087637555866  ,-320.2640695719627  ,-5.54174172269208       ,-160.66789347503004 ,          0.0 ,          0.0 ,-163.01344424071772 ,-320.4593890868316  ,-160.66789347503004 ,-644.1407259179657  , 91.58707436820018   ,214.71354256239766  ,158.63348807526626   ,-160.6481459736201    ,-317.7033535592236  ,-5.54174172269208       ,-158.10727569306363 ,          0.0 ,          0.0 ,-160.45282734336493  ,-317.8986721894788  ,-158.10727569306363 ,-636.4587752259073  , 91.58707436820018   ,212.15292478043122   ,158.63348807526626   ,-2.0054398355289527e-06 ,-5.572144645080925e-06  ,-2.339197610521175e-06  ,      0.0 ,      0.0 ,      0.0 ,-7.188444892212008e-07  ,-6.858740386499977e-06  ,      0.0 ,-7.577580193448761e-06  ,3.845085560524658e-06  ,0.7813995282157465   ,0.10429591439975068     ,-8.736823189844489e-06  ,1.8280386441909042e-07  ,0.0019412676432182172  ,0.2631281127024184     ,0.0 ,11.446381745658934    ,2.437357917583046       ,        0.0 ,        0.0 , 0.0
 0.0 ,0.0 ,           0.0 ,            0.0 ,            0.0 ,            0.0 ,              0.0 ,                   0.0 , 425.0 ,33.50166 ,-17.51674 ,           0.0 ,           0.0 ,       0.0 ,11.88998       ,-18.70574   ,-0.001497471     ,0.0002094084     ,                 0.0 ,             0.0 ,             0.0 ,                 0.0 ,                 0.0 ,        0.0 ,0.002132234589054094   ,            0.0 ,            0.0 ,            0.0 ,              0.0 ,                   0.0 ,  0.0 ,0.0 , 341.5947438460321   ,1.0                ,0.0 ,-161.54598310358222 ,-316.6528791974208  ,-4.788500207853806      ,-158.79435397717296 ,          0.0 ,          0.0 ,-161.3981750800775  ,-316.80068722092557 ,-158.79435397717296 ,-636.993216278176   , 90.4838276434719    ,212.33108893775255  ,156.72260410338174   ,-158.65536956223406   ,-313.76226565607266 ,-4.788500207853806      ,-155.90374043582486 ,          0.0 ,          0.0 ,-158.50756153872933  ,-313.9100736795774  ,-155.90374043582486 ,-628.3213756541315  , 90.4838276434719    ,209.44047539640445   ,156.72260410338174   ,-2.264996043506958e-09  ,-4.367197397629362e-09  ,-1.6370479818164863e-10 ,      0.0 ,      0.0 ,      0.0 ,-2.2618140387552266e-09 ,-4.370380113125957e-09  ,      0.0 ,-6.6321941518811825e-09 ,2.18563782582668e-09   ,0.5957106624416149   ,-0.0005228850106941067  ,-0.0003071576231263767  ,0.0                     ,0.0006068602671039784  ,11.891238937958656     ,0.0 ,0.0                   ,0.0                     ,        0.0 ,        0.0 , 0.0
 0.0 ,0.0 ,           0.0 ,            0.0 ,            0.0 ,            0.0 ,              0.0 ,                   0.0 , 426.0 ,35.49547 ,-17.25521 ,           0.0 ,           0.0 ,       0.0 ,14.47931       ,-18.70314   ,0.001109067      ,0.000776097      ,                 0.0 ,             0.0 ,             0.0 ,                 0.0 ,                 0.0 ,        0.0 ,1.9616055767207805     ,            0.0 ,            0.0 ,            0.0 ,              0.0 ,                   0.0 ,  0.0 ,0.0 , 342.9189714755896   ,1.0                ,0.0 ,-160.82685926798746 ,-313.4319804088927  ,-4.165665145996941      ,-157.36606594006759 ,          0.0 ,          0.0 ,-160.7131484359914  ,-313.54569124088874 ,-157.36606594006759 ,-631.6249056169477  , 89.22112174143305   ,210.54161901033984  ,154.5355410178762    ,-156.69520250676962   ,-309.3003226363762  ,-4.165665145996941      ,-153.23440917884977 ,          0.0 ,          0.0 ,-156.58149066347497  ,-309.41403447967093 ,-153.23440917884977 ,-619.2299343219955  , 89.22112174143305   ,206.40996224912203   ,154.5355410178762    ,-2.4214037649480936e-06 ,-2.63590007053746e-06   ,-1.1886420270584673e-06 ,      0.0 ,      0.0 ,      0.0 ,-9.933996417160426e-07  ,-4.063904730031566e-06  ,      0.0 ,-5.057304371747607e-06  ,2.3225421402032343e-06 ,0.45910681822512417  ,-0.001124868651920883   ,-6.947255968821009e-05  ,0.0                     ,0.001127053687893427   ,16.04594238582295      ,0.0 ,0.0                   ,0.0                     ,        0.0 ,        0.0 , 0.0
 0.0 ,0.0 ,           0.0 ,            0.0 ,            0.0 ,            0.0 ,              0.0 ,                   0.0 , 427.0 ,37.51653 ,-16.85624 ,           0.0 ,           0.0 ,       0.0 ,18.4415        ,-18.7004    ,0.006966676      ,0.0007059613     ,                 0.0 ,             0.0 ,             0.0 ,                 0.0 ,                 0.0 ,        0.0 ,0.47651783672554865    ,            0.0 ,            0.0 ,            0.0 ,              0.0 ,                   0.0 ,  0.0 ,0.0 , 342.60473882950777  ,1.0                ,0.0 ,-157.88639501182195 ,-307.6051716717732  ,-3.641314697810188      ,-154.327183646221   ,          0.0 ,          0.0 ,-157.797196394725   ,-307.6943688487569  ,-154.327183646221   ,-619.8187503298161  , 87.56295061844268   ,206.6062501099387   ,151.6635006385361    ,-153.1264401986457    ,-302.84516595049377 ,-3.641314697810188      ,-149.56722883304474 ,          0.0 ,          0.0 ,-153.03719211355883  ,-302.93441547569387 ,-149.56722883304474 ,-605.5388364222973  , 87.56295061844268   ,201.84629529676243   ,151.6635006385361    ,-8.254189550797914e-07  ,3.3040512617352424e-07  ,-1.0179664704011573e-06 ,      0.0 ,      0.0 ,      0.0 ,5.225880576980113e-07   ,-1.0176019342560623e-06 ,      0.0 ,-4.950138765580508e-07  ,7.832409317977029e-07  ,0.29179318388825193  ,0.002390739955552786    ,-6.1794923904679675e-06 ,-6.673136037896929e-09  ,4.730132689629683e-05  ,19.066752483049136     ,0.0 ,0.41927498760490367   ,0.07096671888411663     ,        0.0 ,        0.0 , 0.0
 0.0 ,0.0 ,           0.0 ,            0.0 ,            0.0 ,            0.0 ,              0.0 ,                   0.0 , 428.0 ,39.62074 ,-16.07139 ,           0.0 ,           0.0 ,       0.0 ,26.26295       ,-18.69768   ,-0.001547061     ,0.001149248      ,                 0.0 ,             0.0 ,             0.0 ,                 0.0 ,                 0.0 ,        0.0 ,0.16878290218882858    ,            0.0 ,            0.0 ,            0.0 ,              0.0 ,                   0.0 ,  0.0 ,0.0 , 326.6609527516964   ,1.0                ,0.0 ,-151.57360752016302 ,-293.29337135974123 ,-3.3647704765725743     ,-147.3116109243603  ,          0.0 ,          0.0 ,-151.4929624046376  ,-293.3739995969764  ,-147.3116109243603  ,-592.1785729259743  , 83.15252414725852   ,197.3928520158947   ,144.02440187286044   ,-146.77556351438534   ,-288.4952816508081  ,-3.3647704765725743     ,-142.51356691858263 ,          0.0 ,          0.0 ,-146.69487269570453  ,-288.5759181726444  ,-142.51356691858263 ,-577.7843952054859  , 83.15252414725852   ,192.59480801011702   ,144.02440187286044   ,-3.255952146057188e-07  ,1.050130253963312e-07   ,-3.0144778235536753e-07 ,      0.0 ,      0.0 ,      0.0 ,1.5252740400073227e-07  ,-3.731096269667004e-07  ,      0.0 ,-2.2058220608767785e-07 ,2.7042244684082143e-07 ,0.32224885633904343  ,0.019436666447031115    ,-6.358272468541847e-06  ,-2.6437681206731982e-08 ,3.880916272600365e-05  ,19.362829565516577     ,0.0 ,7.265042294774302     ,0.8382778371426448      ,        0.0 ,        0.0 , 0.0
 0.0 ,0.0 ,           0.0 ,            0.0 ,            0.0 ,            0.0 ,              0.0 ,                   0.0 , 429.0 ,41.86937 ,-16.00603 ,           0.0 ,           0.0 ,       0.0 ,26.88033       ,-18.69406   ,-0.005001026     ,-0.0004766645    ,                 0.0 ,             0.0 ,             0.0 ,                 0.0 ,                 0.0 ,        0.0 ,0.18978882038649914    ,            0.0 ,            0.0 ,            0.0 ,              0.0 ,                   0.0 ,  0.0 ,0.0 , 297.52014256145395  ,1.0                ,0.0 ,-149.8320542251376  ,-289.99857597878514 ,-2.7415398768174426     ,-145.58217620188603 ,          0.0 ,          0.0 ,-149.77296007176386 ,-290.0576701321588  ,-145.58217620188603 ,-585.4128064058087  , 82.23482806484559   ,195.13759356316595  ,142.4348859624106    ,-147.020960169884     ,-287.1874819235315  ,-2.7415398768174426     ,-142.77106316775038 ,          0.0 ,          0.0 ,-146.96186601651027  ,-287.2465207720983  ,-142.77106316775038 ,-576.979505261166   , 82.23482806484559   ,192.3264995079123    ,142.4348859624106    ,-3.8889152713346573e-07 ,1.4651881028993508e-07  ,-2.6216953176140026e-07 ,      0.0 ,      0.0 ,      0.0 ,1.7688959546234627e-07  ,-4.1926248311581526e-07 ,      0.0 ,-2.423728496957049e-07  ,3.061775736438013e-07  ,0.24826595736613868  ,0.25716026259307306     ,-0.00043412931517460246 ,-4.703922168536004e-05  ,2.851279942075064e-06  ,28.159031603888234     ,0.0 ,-0.8711186900852099   ,-0.8711186900852099     ,        0.0 ,        0.0 , 0.0
 0.0 ,0.0 ,           0.0 ,            0.0 ,            0.0 ,            0.0 ,              0.0 ,                   0.0 , 430.0 ,43.95615 ,-15.90809 ,           0.0 ,           0.0 ,       0.0 ,27.82512       ,-18.6906    ,-0.01159214      ,0.001839263      ,                 0.0 ,             0.0 ,             0.0 ,                 0.0 ,                 0.0 ,        0.0 ,1.0                    ,            0.0 ,            0.0 ,            0.0 ,              0.0 ,                   0.0 ,  0.0 ,0.0 , 297.53131194430154  ,1.0                ,0.0 ,-149.40698400513384 ,-288.3069985000433  ,-2.5952062445850954     ,-144.7752945585346  ,          0.0 ,          0.0 ,-149.35113272384405 ,-288.362849781333   ,-144.7752945585346  ,-582.4892770637116  , 81.61880811278883   ,194.16310084451138  ,141.36794423348445   ,-145.50696798447186   ,-284.4069606827541  ,-2.5952062445850954     ,-140.87520033449982 ,          0.0 ,          0.0 ,-145.4510949065549   ,-284.46283376067106 ,-140.87520033449982 ,-570.7891290017258  , 81.61880811278883   ,190.26305935402695   ,141.36794423348445   ,-1.6057338206470087e-06 ,-2.3659542716315644e-06 ,-1.22328206526142e-06   ,      0.0 ,      0.0 ,      0.0 ,6.027379886682216e-07   ,-4.574427872875669e-06  ,      0.0 ,-3.9716891926918855e-06 ,2.863594276067593e-06  ,0.44017513991368085  ,0.02625253489264694     ,1.700430052126742e-05   ,-1.2428914158897287e-08 ,0.0005605687035050139  ,21.17237947907314      ,0.0 ,8.792151274782908     ,1.0815540893694597      ,        0.0 ,        0.0 , 0.0
 0.0 ,0.0 ,           0.0 ,            0.0 ,            0.0 ,            0.0 ,              0.0 ,                   0.0 , 431.0 ,45.96759 ,-15.80832 ,           0.0 ,           0.0 ,       0.0 ,28.78782       ,-18.68711   ,-0.02296826      ,0.001042845      ,                 0.0 ,             0.0 ,             0.0 ,                 0.0 ,                 0.0 ,        0.0 ,1.5342567208182099     ,            0.0 ,            0.0 ,            0.0 ,              0.0 ,                   0.0 ,  0.0 ,0.0 , 297.0852169037758   ,1.0                ,0.0 ,-148.3872607937859  ,-284.4943428007944  ,-2.0456132618449097     ,-142.99703754663807 ,          0.0 ,          0.0 ,-148.35264234913598 ,-284.52893834068686 ,-142.99703754663807 ,-575.8786182364609  , 80.22019158066908   ,191.959538565914    ,138.94544778326943   ,-144.09977006470615   ,-280.20682586342537 ,-2.0456132618449097     ,-138.7095468175583  ,          0.0 ,          0.0 ,-144.06514831652441  ,-280.24144761160704 ,-138.7095468175583  ,-563.0161656504473  , 80.22019158066908   ,187.6720732803107    ,138.94544778326943   ,-1.384156111277706e-06  ,-2.1028535667167793e-06 ,-6.987747534863627e-07  ,      0.0 ,      0.0 ,      0.0 ,1.119948851016587e-07   ,-3.599004304837315e-06  ,      0.0 ,-3.4870100357327825e-06 ,2.1473846865979186e-06 ,0.645565760947868    ,0.09233575752752719     ,-7.989300529153146e-06  ,-4.534106618089594e-08  ,0.00046154899000837296 ,0.6640187384343238     ,0.0 ,29.726799050837798    ,3.6988291676103158      ,        0.0 ,        0.0 , 0.0
 0.0 ,0.0 ,           0.0 ,            0.0 ,            0.0 ,            0.0 ,              0.0 ,                   0.0 , 432.0 ,47.94073 ,-15.70932 ,           0.0 ,           0.0 ,       0.0 ,29.74187       ,-18.68351   ,-0.02352834      ,0.001280118      ,                 0.0 ,             0.0 ,             0.0 ,                 0.0 ,                 0.0 ,        0.0 ,2.003576366394507      ,            0.0 ,            0.0 ,            0.0 ,              0.0 ,                   0.0 ,  0.0 ,0.0 , 324.0104898331117   ,1.0                ,0.0 ,-148.44695648436294 ,-281.28583788505966 ,-0.9260552436175751     ,-141.64501374207822 ,          0.0 ,          0.0 ,-148.43904295347988 ,-281.2937015053519  ,-141.64501374207822 ,-571.37775820091    , 78.73893695008752   ,190.459285673301    ,136.37986039355496   ,-143.54025594115114   ,-276.37913793235134 ,-0.9260552436175751     ,-136.73831319886636 ,          0.0 ,          0.0 ,-143.53239291136236  ,-276.3870009621401  ,-136.73831319886636 ,-556.6577569829597  , 78.73893695008752   ,185.55258572059267   ,136.37986039355496   ,-9.520700481720757e-07  ,9.245957562992064e-08   ,-3.1932266833862765e-07 ,      0.0 ,      0.0 ,      0.0 ,1.6504343893887816e-07  ,-1.0246535649886935e-06 ,      0.0 ,-8.596101814537561e-07  ,6.454991894014648e-07  ,0.5689643453575449   ,0.16938554382772814     ,-1.4248268711624085e-05 ,1.7379201885857005e-07  ,1.0711833727717675e-05 ,0.015424906406936903   ,0.0 ,30.705363455094897    ,4.893009194825277       ,        0.0 ,        0.0 , 0.0
 0.0 ,0.0 ,           0.0 ,            0.0 ,            0.0 ,            0.0 ,              0.0 ,                   0.0 , 433.0 ,49.89113 ,-15.61018 ,           0.0 ,           0.0 ,       0.0 ,30.69663       ,-18.67985   ,-0.0009472873    ,0.001805231      ,                 0.0 ,             0.0 ,             0.0 ,                 0.0 ,                 0.0 ,        0.0 ,2.509416225172912      ,            0.0 ,            0.0 ,            0.0 ,              0.0 ,                   0.0 ,  0.0 ,0.0 , 324.8434057710949   ,1.0                ,0.0 ,-148.0740700342986  ,-278.28217372413206 ,0.3881946292732877      ,-140.33041261998662 ,          0.0 ,          0.0 ,-148.06988122844143 ,-278.286412216115   ,-140.33041261998662 ,-566.686706064543   , 77.51469054260951   ,188.8955688974305   ,134.2593571296547    ,-143.1448969296472    ,-273.35300061948067 ,0.3881946292732877      ,-135.40118982920941 ,          0.0 ,          0.0 ,-143.1406584376642   ,-273.35718942533776 ,-135.40118982920941 ,-551.8990873783373  , 77.51469054260951   ,183.96639579277908   ,134.2593571296547    ,-1.9664446042906457e-06 ,4.09450700709672e-07    ,-7.716079158164734e-07  ,      0.0 ,      0.0 ,      0.0 ,4.705522414057583e-07   ,-2.0275457929610416e-06 ,      0.0 ,-1.5569939000201983e-06 ,1.327651870554357e-06  ,0.16419059142630715  ,0.0012542145864419816   ,-5.644233454459887e-08  ,2.4987482232804174e-09  ,1.2351295672660278e-05 ,32.59013132821361      ,0.0 ,0.13583326606187132   ,0.028989479565455268    ,        0.0 ,        0.0 , 0.0
 0.0 ,0.0 ,           0.0 ,            0.0 ,            0.0 ,            0.0 ,              0.0 ,                   0.0 , 434.0 ,51.82733 ,-15.49934 ,           0.0 ,           0.0 ,       0.0 ,31.76816       ,-18.67616   ,0.02243129       ,0.001567554      ,                 0.0 ,             0.0 ,             0.0 ,                 0.0 ,                 0.0 ,        0.0 ,1.5100304940501132     ,            0.0 ,            0.0 ,            0.0 ,              0.0 ,                   0.0 ,  0.0 ,0.0 , 322.6313213070954   ,1.0                ,0.0 ,-146.47099711749732 ,-277.1774599920143  ,1.50704639842222        ,-139.59720554778798 ,          0.0 ,          0.0 ,-146.448351321276   ,-277.20010578823565 ,-139.59720554778798 ,-563.2456626572996  , 77.55309451804233   ,187.74855428312335  ,134.32590832341734   ,-141.5463870218621    ,-272.2528498963791  ,1.50704639842222        ,-134.67269526008238 ,          0.0 ,          0.0 ,-141.52374122564075  ,-272.27549550053004 ,-134.67269526008238 ,-548.4719319862531  , 77.55309451804233   ,182.82394399541775   ,134.32590832341734   ,-1.2531544212399154e-06 ,1.961536532750291e-07   ,4.750263258139059e-07   ,      0.0 ,      0.0 ,      0.0 ,2.3408478797769732e-07  ,-1.2910851060065615e-06 ,      0.0 ,-1.0570007687331678e-06 ,8.213664200564504e-07  ,0.34712807267676615  ,0.10568789072924958     ,-9.095808642704818e-06  ,-9.706880466137287e-08  ,5.137477664338236e-06  ,20.404617512549954     ,0.0 ,11.507898877063997    ,2.436183846755534       ,        0.0 ,        0.0 , 0.0
 0.0 ,0.0 ,           0.0 ,            0.0 ,            0.0 ,            0.0 ,              0.0 ,                   0.0 , 435.0 ,53.75493 ,-15.38865 ,           0.0 ,           0.0 ,       0.0 ,32.83801       ,-18.67245   ,0.02513608       ,0.001561651      ,                 0.0 ,             0.0 ,             0.0 ,                 0.0 ,                 0.0 ,        0.0 ,1.9964023984014965     ,            0.0 ,            0.0 ,            0.0 ,              0.0 ,                   0.0 ,  0.0 ,0.0 , 321.63308391128345  ,1.0                ,0.0 ,-145.03101083516114 ,-277.5864160081843  ,2.2264321578530266      ,-139.53573153268107 ,          0.0 ,          0.0 ,-144.99136275560716 ,-277.6260145382989  ,-139.53573153268107 ,-562.1531583760266  , 78.20887609199006   ,187.38440294219566  ,135.461746525659     ,-140.09340855494716   ,-272.648764178531   ,2.2264321578530266      ,-134.5981288321734  ,          0.0 ,          0.0 ,-140.05376047539323  ,-272.6883622278182  ,-134.5981288321734  ,-547.3402515353847  , 78.20887609199006   ,182.4467502114212    ,135.461746525659     ,-1.9088735017865293e-06 ,6.01268745188618e-07    ,3.4796762335748736e-07  ,      0.0 ,      0.0 ,      0.0 ,6.393972433030028e-07   ,-1.947002201464463e-06  ,      0.0 ,-1.3076049567189785e-06 ,1.3512403773338999e-06 ,0.5654717166938863   ,0.15293645139834292     ,-1.1862257420430369e-05 ,3.194051579815419e-08   ,1.2754293592307788e-08 ,0.17996740674475742    ,0.0 ,33.80672220518039     ,4.916750581968522       ,        0.0 ,        0.0 , 0.0
 0.0 ,0.0 ,           0.0 ,            0.0 ,            0.0 ,            0.0 ,              0.0 ,                   0.0 , 436.0 ,55.67864 ,-15.28025 ,           0.0 ,           0.0 ,       0.0 ,33.88475       ,-18.66872   ,0.01524709       ,0.001934591      ,                 0.0 ,             0.0 ,             0.0 ,                 0.0 ,                 0.0 ,        0.0 ,0.9910274145987428     ,            0.0 ,            0.0 ,            0.0 ,              0.0 ,                   0.0 ,  0.0 ,0.0 , 318.1103312561652   ,1.0                ,0.0 ,-143.795427825407   ,-277.9167308228863  ,2.7233386271011324      ,-139.44477667679524 ,          0.0 ,          0.0 ,-143.7401652300233  ,-277.97204296964065 ,-139.44477667679524 ,-561.1569358345864  , 78.773027848951     ,187.05231207411566  ,136.43888124220206   ,-138.8569674220521    ,-272.9782704195314  ,2.7233386271011324      ,-134.50626633430906 ,          0.0 ,          0.0 ,-138.8016552752977   ,-273.03358256628576 ,-134.50626633430906 ,-546.3415036663945  , 78.773027848951     ,182.11380122213149   ,136.43888124220206   ,-8.756138484356951e-07  ,4.0805088013218375e-07  ,3.8385995049319915e-07  ,      0.0 ,      0.0 ,      0.0 ,4.3613332667144394e-07  ,-9.036960967694724e-07  ,      0.0 ,-4.675629683035114e-07  ,6.833768281203674e-07  ,0.3463648788311983   ,0.09405446918357825     ,-1.2036909866033297e-05 ,-5.925399289758966e-08  ,1.5154598695536395e-06 ,21.38225511762838      ,0.0 ,13.121325562648586    ,2.4583920660760525      ,        0.0 ,        0.0 , 0.0
 0.0 ,0.0 ,           0.0 ,            0.0 ,            0.0 ,            0.0 ,              0.0 ,                   0.0 , 437.0 ,57.60332 ,-15.17347 ,           0.0 ,           0.0 ,       0.0 ,34.91491       ,-18.66496   ,0.008089549      ,0.001489925      ,                 0.0 ,             0.0 ,             0.0 ,                 0.0 ,                 0.0 ,        0.0 ,2.000190665388435      ,            0.0 ,            0.0 ,            0.0 ,              0.0 ,                   0.0 ,  0.0 ,0.0 , 317.0892899548724   ,1.0                ,0.0 ,-142.74452934803207 ,-277.0109024234702  ,2.77228117752438        ,-138.90746637971586 ,          0.0 ,          0.0 ,-142.6870673454321  ,-277.06836442607016 ,-138.90746637971586 ,-558.6628984242909  , 78.70190037161188   ,186.22094980288188  ,136.31567028376284   ,-137.80051630924652   ,-272.0669395307543  ,2.77228117752438        ,-133.96345390614243 ,          0.0 ,          0.0 ,-137.74310445271624  ,-272.1243513872846  ,-133.96345390614243 ,-543.830859892213   , 78.70190037161188   ,181.2769364910235    ,136.31567028376284   ,-9.9122574693501e-07    ,4.099646752955812e-07   ,2.2551797095435148e-07  ,      0.0 ,      0.0 ,      0.0 ,4.1963458741174623e-07  ,-1.0008957052407594e-06 ,      0.0 ,-5.812612660063736e-07  ,7.298162184768212e-07  ,0.5690807148255816   ,0.14546208543951594     ,-8.339088330082751e-06  ,-2.8680171575558326e-08 ,0.0                    ,8.339140403924462e-06  ,0.0 ,35.85855981839301     ,4.944015938756948       ,        0.0 ,        0.0 , 0.0
 0.0 ,0.0 ,           0.0 ,            0.0 ,            0.0 ,            0.0 ,              0.0 ,                   0.0 , 438.0 ,59.535   ,-15.06701 ,           0.0 ,           0.0 ,       0.0 ,35.94156       ,-18.66117   ,0.003773154      ,0.001504369      ,                 0.0 ,             0.0 ,             0.0 ,                 0.0 ,                 0.0 ,        0.0 ,3.4959863128359467     ,            0.0 ,            0.0 ,            0.0 ,              0.0 ,                   0.0 ,  0.0 ,0.0 , 316.5883706451624   ,1.0                ,0.0 ,-141.79872954385502 ,-275.0005762498014  ,2.723138126992281       ,-137.96725368235732 ,          0.0 ,          0.0 ,-141.74286474883453 ,-275.0564410448219  ,-137.96725368235732 ,-554.7665348808589  , 78.08440669777747   ,184.92217856119876  ,135.2461447657592    ,-136.8516527543145    ,-270.05354945330816 ,2.723138126992281       ,-133.02020229070914 ,          0.0 ,          0.0 ,-136.79586295581765  ,-270.10933925180507 ,-133.02020229070914 ,-539.9254044983318  , 78.08440669777747   ,179.97512636681316   ,135.2461447657592    ,-1.929012597829653e-06  ,7.177510486742978e-07   ,1.076081193160643e-06   ,      0.0 ,      0.0 ,      0.0 ,8.456603028194068e-07   ,-2.0569214991512753e-06 ,      0.0 ,-1.2112612947263938e-06 ,1.4928742252405484e-06 ,0.5681282321377163   ,0.1414792993151029      ,-1.0110255552958633e-05 ,-5.99532422443295e-08   ,0.0                    ,1.011045625987318e-05  ,0.0 ,36.88303353625813     ,4.94704962014602        ,        0.0 ,        0.0 , 0.0
 0.0 ,0.0 ,           0.0 ,            0.0 ,            0.0 ,            0.0 ,              0.0 ,                   0.0 , 439.0 ,61.48203 ,-14.9599  ,           0.0 ,           0.0 ,       0.0 ,36.97444       ,-18.65734   ,-0.0004790381    ,0.001298848      ,                 0.0 ,             0.0 ,             0.0 ,                 0.0 ,                 0.0 ,        0.0 ,3.666478711641711      ,            0.0 ,            0.0 ,            0.0 ,              0.0 ,                   0.0 ,  0.0 ,0.0 , 296.21130418758054  ,1.0                ,0.0 ,-140.6388333294968  ,-272.4142201337079  ,2.671777491640764       ,-136.76307987695523 ,          0.0 ,          0.0 ,-140.5843175254455  ,-272.46875322401826 ,-136.76307987695523 ,-549.8161333401599  , 77.27962068807395   ,183.27202182396655  ,133.85221172811308   ,-135.69392639459159   ,-267.4692453305424  ,2.671777491640764       ,-131.8181050737897  ,          0.0 ,          0.0 ,-135.6394093701511   ,-267.52376235498286 ,-131.8181050737897  ,-534.9812595126647  , 77.27962068807395   ,178.32709760280233   ,133.85221172811308   ,-1.9903254703982623e-06 ,6.388474966550537e-07   ,9.274283791656921e-07   ,      0.0 ,      0.0 ,      0.0 ,7.285168750798712e-07   ,-2.0799945697705057e-06 ,      0.0 ,-1.3514779131408964e-06 ,1.4594019228234926e-06 ,0.5661872564085072   ,0.14304658015460595     ,-9.419961233025968e-06  ,-6.201345387966153e-08  ,0.0                    ,9.420175178278192e-06  ,0.0 ,38.21926241914996     ,4.944951053785339       ,        0.0 ,        0.0 , 0.0
 0.0 ,0.0 ,           0.0 ,            0.0 ,            0.0 ,            0.0 ,              0.0 ,                   0.0 , 440.0 ,71.60226 ,-13.35937 ,           0.0 ,           0.0 ,       0.0 ,52.7753        ,-18.6369    ,0.06177878       ,-0.0008580845    ,                 0.0 ,             0.0 ,             0.0 ,                 0.0 ,                 0.0 ,        0.0 ,1.2240496495070792     ,            0.0 ,            0.0 ,            0.0 ,              0.0 ,                   0.0 ,  0.0 ,0.0 , 310.05454763197315  ,1.0                ,0.0 ,-126.47782701076548 ,-243.5060898574293  ,15.594181844858335      ,-122.4503504992486  ,          0.0 ,          0.0 ,-124.39939949190608 ,-245.58454576386669 ,-122.4503504992486  ,-492.4342927637148  , 70.54552972447595   ,164.14478761688324  ,122.18840987937895   ,-121.50077665886715   ,-238.52904100118417 ,15.594181844858335      ,-117.47328222934507 ,          0.0 ,          0.0 ,-119.4223267350428   ,-240.6074745026566  ,-117.47328222934507 ,-477.50307898008464 , 70.54552972447595   ,159.1677163556732    ,122.18840987937895   ,-1.919151640451372e-06  ,2.277439415189307e-07   ,1.6539280588417569e-06  ,      0.0 ,      0.0 ,      0.0 ,5.162222534117208e-07   ,-2.2076302684087145e-06 ,      0.0 ,-1.6914079270218188e-06 ,1.4469950993752938e-06 ,0.48961023066904624  ,0.08506131392220406     ,-2.1700652249195574e-06 ,-1.356043953190858e-07  ,8.888728626137138e-08  ,11.999113730802542     ,0.0 ,42.609327524801515    ,4.230707358846478       ,        0.0 ,        0.0 , 0.0
 0.0 ,0.0 ,           0.0 ,            0.0 ,            0.0 ,            0.0 ,              0.0 ,                   0.0 , 441.0 ,69.94981 ,-14.47735 ,           0.0 ,           0.0 ,       0.0 ,41.63139       ,-18.64048   ,0.03173255       ,0.0002140303     ,                 0.0 ,             0.0 ,             0.0 ,                 0.0 ,                 0.0 ,        0.0 ,2.3319832834922565     ,            0.0 ,            0.0 ,            0.0 ,              0.0 ,                   0.0 ,  0.0 ,0.0 , 314.7471413688971   ,1.0                ,0.0 ,-138.21535866989515 ,-257.09924177951495 ,12.031598869894932      ,-130.41925814878692 ,          0.0 ,          0.0 ,-136.89032712566842 ,-258.4243186473489  ,-130.41925814878692 ,-525.7339039218043  , 72.1132309845931    ,175.24466081457996  ,124.90377678046664   ,-133.26262550040062   ,-252.14653008808483 ,12.031598869894932      ,-125.46653433207788 ,          0.0 ,          0.0 ,-131.93757011063104  ,-253.47154015424712 ,-125.46653433207788 ,-510.87562311889167 , 72.1132309845931    ,170.29188232147817   ,124.90377678046664   ,-1.3197048030605603e-06 ,-1.0050508752419625e-07 ,1.9171742166446883e-06  ,      0.0 ,      0.0 ,      0.0 ,5.231297312195485e-07   ,-1.943339422600194e-06  ,      0.0 ,-1.4202098800653965e-06 ,1.3033171803782514e-06 ,0.47396278775543776  ,0.09454248050441133     ,-9.985637510804699e-06  ,-2.913844166051537e-08  ,3.813146824125776e-06  ,6.247893007253026      ,0.0 ,35.933752573912784    ,3.894364170571665       ,        0.0 ,        0.0 , 0.0
 0.0 ,0.0 ,           0.0 ,            0.0 ,            0.0 ,            0.0 ,              0.0 ,                   0.0 , 442.0 ,67.61703 ,-14.62262 ,           0.0 ,           0.0 ,       0.0 ,40.22623       ,-18.64524   ,-0.01954577      ,0.00177681       ,                 0.0 ,             0.0 ,             0.0 ,                 0.0 ,                 0.0 ,        0.0 ,1.9292293764869992     ,            0.0 ,            0.0 ,            0.0 ,              0.0 ,                   0.0 ,  0.0 ,0.0 , 287.79249357968075  ,0.9999999999999999 ,0.0 ,-138.86763050480624 ,-258.6974015245037  ,6.058097936852043       ,-131.32291711865963 ,          0.0 ,          0.0 ,-138.54868914334645 ,-259.01634288596347 ,-131.32291711865963 ,-528.8879491479695  , 71.73651815389684   ,176.29600167303232  ,124.25129989847531   ,-133.9232825687128    ,-253.7530535884102  ,6.058097936852043       ,-126.37862505369363 ,          0.0 ,          0.0 ,-133.60434120725301  ,-254.07199494987003 ,-126.37862505369363 ,-514.0549612108166  , 71.73651815389684   ,171.35165373693889   ,124.25129989847531   ,-9.243770186417541e-07  ,-1.7375633636391472e-07 ,1.6743072089979883e-06  ,      0.0 ,      0.0 ,      0.0 ,5.503525050688479e-07   ,-1.6484858653265332e-06 ,      0.0 ,-1.0981331778387804e-06 ,1.1486782591091098e-06 ,0.47964198794992097  ,0.11040454846247416     ,-1.5127000155704282e-05 ,3.465743183403571e-08   ,1.8175690852638007e-06 ,5.4724504800288        ,0.0 ,35.07330675018315     ,4.016970399323327       ,        0.0 ,        0.0 , 0.0
 0.0 ,0.0 ,           0.0 ,            0.0 ,            0.0 ,            0.0 ,              0.0 ,                   0.0 , 443.0 ,65.48714 ,-14.7404  ,           0.0 ,           0.0 ,       0.0 ,39.09063       ,-18.64946   ,-0.01330544      ,0.0009769043     ,                 0.0 ,             0.0 ,             0.0 ,                 0.0 ,                 0.0 ,        0.0 ,0.6918563908273543     ,            0.0 ,            0.0 ,            0.0 ,              0.0 ,                   0.0 ,  0.0 ,0.0 , 287.38996795547405  ,1.0                ,0.0 ,-138.65614185932236 ,-264.28475842901554 ,3.6470100983707945      ,-133.34917430939544 ,          0.0 ,          0.0 ,-138.54814406651036 ,-264.392734211318   ,-133.34917430939544 ,-536.2900745977333  , 74.216779764449     ,178.76336553608098  ,128.54721181906254   ,-133.71302863200376   ,-259.3416672122065  ,3.6470100983707945      ,-128.4060830925864  ,          0.0 ,          0.0 ,-133.60505284970134  ,-259.44964299450896 ,-128.4060830925864  ,-521.4607789367967  , 74.216779764449     ,173.82025230876238   ,128.54721181906254   ,-1.0166241705493321e-06 ,2.3387215878207535e-07  ,5.103703013624362e-07   ,      0.0 ,      0.0 ,      0.0 ,2.954387783609949e-07   ,-1.0781910228497891e-06 ,      0.0 ,-7.82752209930106e-07   ,7.258707294359466e-07  ,0.14402416045415836  ,-9.170415558475094e-06  ,-5.4809394123560466e-08 ,0.0                     ,9.170693008172622e-06  ,39.86027913634036      ,0.0 ,0.0                   ,0.0                     ,        0.0 ,        0.0 , 0.0
 0.0 ,0.0 ,           0.0 ,            0.0 ,            0.0 ,            0.0 ,              0.0 ,                   0.0 , 444.0 ,63.45736 ,-14.85169 ,           0.0 ,           0.0 ,       0.0 ,38.0177        ,-18.65346   ,-0.006204975     ,0.001228577      ,                 0.0 ,             0.0 ,             0.0 ,                 0.0 ,                 0.0 ,        0.0 ,2.97125127059381       ,            0.0 ,            0.0 ,            0.0 ,              0.0 ,                   0.0 ,  0.0 ,0.0 , 286.89085365844113  ,0.9999999999999999 ,0.0 ,-139.6080585262232  ,-268.93350206121676 ,2.8579588961757025      ,-135.2616778262659  ,          0.0 ,          0.0 ,-139.5442962065038  ,-268.9972129434998  ,-135.2616778262659  ,-543.8032384137059  , 76.02116485221046   ,181.26775547973796  ,131.67250589640355   ,-134.6646110269499    ,-263.9901077380864  ,2.8579588961757025      ,-130.31825835250055 ,          0.0 ,          0.0 ,-134.60090014466692  ,-264.0538186203693  ,-130.31825835250055 ,-528.9729771175369  , 76.02116485221046   ,176.3243079804646    ,131.67250589640355   ,-2.113151018534512e-06  ,5.897274481265498e-07   ,1.0202255203047451e-06  ,      0.0 ,      0.0 ,      0.0 ,7.212445132573759e-07   ,-2.244668296903536e-06  ,      0.0 ,-1.5234235463934936e-06 ,1.5531801312599242e-06 ,0.23877984940657507  ,0.03948121374393796     ,-2.825724491017812e-06  ,-1.646333603130107e-08  ,9.301897535636819e-06  ,32.66683158546651      ,0.0 ,6.840436404559573     ,1.1538234181516438      ,        0.0 ,        0.0 , 0.0
 0.0 ,0.0 ,           0.0 ,            0.0 ,            0.0 ,            0.0 ,              0.0 ,                   0.0 , 445.0 ,117.4284 ,-13.26761 ,           0.0 ,           0.0 ,       0.0 ,25.86202       ,-15.85382   ,-0.0002852145    ,0.0002689458     ,                 0.0 ,             0.0 ,             0.0 ,                 0.0 ,                 0.0 ,        0.0 ,1.489542414613173      ,            0.0 ,            0.0 ,            0.0 ,              0.0 ,                   0.0 ,  0.0 ,0.0 , 331.5010150315292   ,1.0                ,0.0 ,-122.37160050017123 ,-243.40033758603678 ,0.05936875760531136     ,-121.80221216908328 ,          0.0 ,          0.0 ,-122.3715508487574  ,-243.4003872374506  ,-121.80221216908328 ,-487.5741502552912  , 70.04262499427551   ,162.52473345961096  ,121.31738780714743   ,-117.47566460137972   ,-238.50445133865907 ,0.05936875760531136     ,-116.90627627029176 ,          0.0 ,          0.0 ,-117.47561494996589  ,-238.5045014622006  ,-116.90627627029176 ,-472.88639221033054 , 70.04262499427551   ,157.6287975608194    ,121.31738780714743   ,8.542347002716794e-06   ,-6.1074664946693705e-06 ,1.689592429522966e-06   ,      0.0 ,      0.0 ,      0.0 ,8.590906085433184e-06   ,-6.156020612244378e-06  ,      0.0 ,2.4348834871322524e-06  ,7.4068886806227e-06    ,0.2021747462639209   ,-0.0010950439377987742  ,-0.003965976315458563   ,-0.00010288186489607675 ,0.0046030554675143     ,24.83640853311813      ,0.0 ,0.08717823685209751   ,0.02278579366486569     ,        0.0 ,        0.0 , 0.0
 0.0 ,0.0 ,           0.0 ,            0.0 ,            0.0 ,            0.0 ,              0.0 ,                   0.0 , 446.0 ,115.5931 ,-13.29531 ,           0.0 ,           0.0 ,       0.0 ,34.37408       ,-16.73272   ,-0.0008579913    ,-5.585068e-05    ,                 0.0 ,             0.0 ,             0.0 ,                 0.0 ,                 0.0 ,        0.0 ,0.0                    ,            0.0 ,            0.0 ,            0.0 ,              0.0 ,                   0.0 ,  0.0 ,0.0 , 339.04617727040807  ,1.0                ,0.0 ,-123.76041862521316 ,-244.49236865882227 ,-0.1280866581863723     ,-122.4720732454366  ,          0.0 ,          0.0 ,-123.76013277617392 ,-244.49265450786152 ,-122.4720732454366  ,-490.72486052947204 , 70.0798876716982    ,163.5749378905889   ,121.38193922565742   ,-118.825712880894     ,-239.55771447501547 ,-0.1280866581863723     ,-117.5373722039244  ,          0.0 ,          0.0 ,-118.82547388956014  ,-239.55795346634932 ,-117.5373722039244  ,-475.9207995598339  , 70.0798876716982    ,158.64028370678204   ,121.38193922565742   ,0.0                     ,0.0                     ,0.0                     ,      0.0 ,      0.0 ,      0.0 ,0.0                     ,0.0                     ,      0.0 ,0.0                     ,0.0                    ,0.3563520792137714   ,0.06785641488979774     ,-0.003329511571702446   ,-0.0007910902055742195  ,0.003313900529279139   ,15.223568402421774     ,0.0 ,15.674342912647818    ,2.3171430514851585      ,        0.0 ,        0.0 , 0.0
 0.0 ,0.0 ,           0.0 ,            0.0 ,            0.0 ,            0.0 ,              0.0 ,                   0.0 , 447.0 ,113.8436 ,-13.28608 ,           0.0 ,           0.0 ,       0.0 ,40.24593       ,-17.31068   ,0.004781548      ,0.002312724      ,                 0.0 ,             0.0 ,             0.0 ,                 0.0 ,                 0.0 ,        0.0 ,1.4845829425734731     ,            0.0 ,            0.0 ,            0.0 ,              0.0 ,                   0.0 ,  0.0 ,0.0 , 339.8071492840977   ,1.0                ,0.0 ,-123.16615911624234 ,-244.20124997183123 ,-0.15676101386094946    ,-122.33497214409464 ,          0.0 ,          0.0 ,-123.16586824487624 ,-244.20154084319734 ,-122.33497214409464 ,-489.7023317460701  , 70.12119215948461   ,163.23411091786906  ,121.45348558226283   ,-118.21220007203382   ,-239.24728992008565 ,-0.15676101386094946    ,-117.380963613788   ,          0.0 ,          0.0 ,-118.21190819313064  ,-239.24758179898882 ,-117.380963613788   ,-474.84045360590744 , 70.12119215948461   ,158.28015086612345   ,121.45348558226283   ,2.546298764367261e-06   ,-3.958353397003269e-06  ,-9.816067364905613e-08  ,      0.0 ,      0.0 ,      0.0 ,2.546668920380942e-06   ,-3.95872355301695e-06   ,      0.0 ,-1.4120546326360078e-06 ,3.278138276877299e-06  ,0.5511544486255746   ,0.13101159256936457     ,-0.0005042102470510899  ,-0.0008519865748770281  ,0.00013054493315790331 ,0.5846083235914156     ,0.0 ,36.680273070536735    ,4.8537095791732145      ,        0.0 ,        0.0 , 0.0
 0.0 ,0.0 ,           0.0 ,            0.0 ,            0.0 ,            0.0 ,              0.0 ,                   0.0 , 448.0 ,112.3501 ,-13.23798 ,           0.0 ,           0.0 ,       0.0 ,43.63017       ,-17.601     ,0.01105109       ,0.0003977732     ,                 0.0 ,             0.0 ,             0.0 ,                 0.0 ,                 0.0 ,        0.0 ,1.8419766970807885     ,            0.0 ,            0.0 ,            0.0 ,              0.0 ,                   0.0 ,  0.0 ,0.0 , 339.62247900290527  ,1.0                ,0.0 ,-123.01024138748676 ,-243.51242151000295 ,-0.08941980941000242    ,-122.03245444681602 ,          0.0 ,          0.0 ,-123.00978010100735 ,-243.5128441957056  ,-122.03245444681602 ,-488.55505498366165 , 69.85641084999116   ,162.8516803680577   ,120.99485037936992   ,-118.05071756486134   ,-238.55287392751023 ,-0.08941980941000242    ,-117.07294546510002 ,          0.0 ,          0.0 ,-118.05027111929135  ,-238.55335897385697 ,-117.07294546510002 ,-473.6764993181157  , 69.85641084999116   ,157.89217138634172   ,120.99485037936992   ,2.7166169042409807e-06  ,-4.134958138989276e-06  ,5.28595845107621e-07    ,      0.0 ,      0.0 ,      0.0 ,2.7388885535607557e-06  ,-4.15723016470261e-06   ,      0.0 ,-1.4183412347482955e-06 ,3.472344148594482e-06  ,0.3972961367946984   ,0.07864008321093494     ,-0.00030065633321156343 ,-0.0003447363425961896  ,0.0001999400326346397  ,14.596639407518683     ,0.0 ,24.521587599200775    ,3.0930107221634735      ,        0.0 ,        0.0 , 0.0
 0.0 ,0.0 ,           0.0 ,            0.0 ,            0.0 ,            0.0 ,              0.0 ,                   0.0 , 449.0 ,111.2178 ,-14.47888 ,           0.0 ,           0.0 ,       0.0 ,37.24631       ,-18.20351   ,-0.001646056     ,-7.072946e-06    ,                 0.0 ,             0.0 ,             0.0 ,                 0.0 ,                 0.0 ,        0.0 ,0.7668931164534594     ,            0.0 ,            0.0 ,            0.0 ,              0.0 ,                   0.0 ,  0.0 ,0.0 , 290.1185996367497   ,1.0                ,0.0 ,-134.02818673245713 ,-265.0709294075114  ,0.012724344507966834    ,-132.80208120667112 ,          0.0 ,          0.0 ,-134.02791249115927 ,-265.0711877280762  ,-132.80208120667112 ,-531.9011814259067  , 76.01423747335036   ,177.3003913453171   ,131.660526963059     ,-129.11213243784724   ,-260.15495919216846 ,0.012724344507966834    ,-127.88608117745008 ,          0.0 ,          0.0 ,-129.1118741172824   ,-260.15523343346626 ,-127.88608117745008 ,-517.1531344628099  , 76.01423747335036   ,172.38439870605137   ,131.660526963059     ,-1.4790197113350697e-06 ,1.3951403932764143e-06  ,-1.5546940399407893e-07 ,      0.0 ,      0.0 ,      0.0 ,1.3972412969689386e-06  ,-1.4811206150275938e-06 ,      0.0 ,-8.387912633537624e-08  ,1.4393847578439637e-06 ,0.444055529848024    ,0.06963541929251406     ,-0.003982489272973089   ,-0.00028827128916952946 ,0.004165709726057039   ,7.278566635926421      ,0.0 ,26.654471111273097    ,3.062020434254365       ,        0.0 ,        0.0 , 0.0
 0.0 ,0.0 ,           0.0 ,            0.0 ,            0.0 ,            0.0 ,              0.0 ,                   0.0 , 450.0 ,109.006  ,-14.68296 ,           0.0 ,           0.0 ,       0.0 ,36.58515       ,-18.34148   ,0.000148145      ,-0.0011446       ,                 0.0 ,             0.0 ,             0.0 ,                 0.0 ,                 0.0 ,        0.0 ,1.2183729957723084     ,            0.0 ,            0.0 ,            0.0 ,              0.0 ,                   0.0 ,  0.0 ,0.0 , 293.658243669615    ,1.0                ,0.0 ,-135.3259971233834  ,-268.55334999693434 ,-0.03655274715805354    ,-134.41652611774737 ,          0.0 ,          0.0 ,-135.32554811567454 ,-268.5537990046431  ,-134.41652611774737 ,-538.2958932236404  , 77.18365462543919   ,179.43195471169264  ,133.68604884519914   ,-130.54998282936612   ,-263.777384777055   ,-0.03655274715805354    ,-129.64053180930551 ,          0.0 ,          0.0 ,-130.54955380723268  ,-263.7778392621194  ,-129.64053180930551 ,-523.967919401302   , 77.18365462543919   ,174.65598949181333   ,133.68604884519914   ,-4.3720472830689107e-07 ,-2.49819500962664e-06   ,6.066244557879476e-07   ,      0.0 ,      0.0 ,      0.0 ,9.955579704848536e-09   ,-2.9453551629369467e-06 ,      0.0 ,-2.9354007564507732e-06 ,1.7406531006256878e-06 ,0.5670521147459551   ,0.21942552370853496     ,-0.0007015993906938416  ,-0.0003513380573138588  ,0.0                    ,0.0008808394924857872  ,0.0 ,35.66554597423433     ,4.7759821572102314      ,        0.0 ,        0.0 , 0.0
 0.0 ,0.0 ,           0.0 ,            0.0 ,            0.0 ,            0.0 ,              0.0 ,                   0.0 , 451.0 ,38.32846 ,-15.00425 ,           0.0 ,           0.0 ,       0.0 ,36.94938       ,-18.69919   ,-0.01779007      ,-0.0004573001    ,                 0.0 ,             0.0 ,             0.0 ,                 0.0 ,                 0.0 ,        0.0 ,0.368756134325663      ,            0.0 ,            0.0 ,            0.0 ,              0.0 ,                   0.0 ,  0.0 ,0.0 , 368.88750998518407  ,1.0                ,0.0 ,-143.7261610111984  ,-274.68429274338996 ,-3.3449333766710136     ,-138.38643147649285 ,          0.0 ,          0.0 ,-143.63922076246484 ,-274.7711565157708  ,-138.38643147649285 ,-556.7968483554677  , 77.27160101931108   ,185.59893715995142  ,133.8383327928423    ,-138.774557166214     ,-269.73268889840557 ,-3.3449333766710136     ,-133.43482763150845 ,          0.0 ,          0.0 ,-138.68765651821968  ,-269.81959227152566 ,-133.43482763150845 ,-541.9420764212538  , 77.27160101931108   ,180.64733331496706   ,133.8383327928423    ,-7.11358977336547e-07   ,2.294319910180858e-07   ,-6.586017747108431e-07  ,      0.0 ,      0.0 ,      0.0 ,3.3324119415314496e-07  ,-8.151682542228331e-07  ,      0.0 ,-4.819270231940746e-07  ,5.908177596113683e-07  ,0.56522664393295     ,0.1361443683420933      ,-4.0546861494015774e-06 ,-2.5034100671672143e-07 ,0.0                    ,4.0630972223397945e-06 ,0.0 ,37.749836901455225    ,4.95159087929226        ,        0.0 ,        0.0 , 0.0
 0.0 ,0.0 ,           0.0 ,            0.0 ,            0.0 ,            0.0 ,              0.0 ,                   0.0 , 452.0 ,36.79516 ,-15.22095 ,           0.0 ,           0.0 ,       0.0 ,34.80228       ,-18.70118   ,-0.0157386       ,0.001950807      ,                 0.0 ,             0.0 ,             0.0 ,                 0.0 ,                 0.0 ,        0.0 ,0.48477132444679916    ,            0.0 ,            0.0 ,            0.0 ,              0.0 ,                   0.0 ,  0.0 ,0.0 , 372.9872577038364   ,1.0                ,0.0 ,-144.96767930064988 ,-278.5176119028479  ,-3.5849936199069226     ,-140.19969987764546 ,          0.0 ,          0.0 ,-144.87144143449382 ,-278.6138497690039  ,-140.19969987764546 ,-563.684991081143   , 78.60080884429725   ,187.8949970270477   ,136.1406090290921    ,-140.02376677486876   ,-273.5737019130016  ,-3.5849936199069226     ,-135.2557873518643  ,          0.0 ,          0.0 ,-139.92753144464763  ,-273.66993724322276 ,-135.2557873518643  ,-548.8532560397347  , 78.60080884429725   ,182.9510845012666    ,136.1406090290921    ,-8.397155557221766e-07  ,3.3612788079410733e-07  ,-1.0355980743340436e-06 ,      0.0 ,      0.0 ,      0.0 ,5.316395008656401e-07   ,-1.0352272242708419e-06 ,      0.0 ,-5.035877234052016e-07  ,7.968069914814171e-07  ,0.3761298161972929   ,0.05834074220118562     ,-6.539026152053741e-07  ,-2.4922216874476433e-08 ,5.709263385414576e-06  ,13.258879641219876     ,0.0 ,22.605382550812386    ,2.559569495709047       ,        0.0 ,        0.0 , 0.0
 0.0 ,0.0 ,           0.0 ,            0.0 ,            0.0 ,            0.0 ,              0.0 ,                   0.0 , 453.0 ,35.00617 ,-15.41153 ,           0.0 ,           0.0 ,       0.0 ,32.91851       ,-18.70338   ,-0.01152429      ,3.084543e-05     ,                 0.0 ,             0.0 ,             0.0 ,                 0.0 ,                 0.0 ,        0.0 ,0.46556716662521713    ,            0.0 ,            0.0 ,            0.0 ,              0.0 ,                   0.0 ,  0.0 ,0.0 , 375.13708006544925  ,1.0                ,0.0 ,-146.1481040800005  ,-282.32126758701065 ,-3.920447957928939      ,-141.97882399504616 ,          0.0 ,          0.0 ,-146.03475896133492 ,-282.4346127056763  ,-141.97882399504616 ,-570.4481956620573  , 79.94723403835968   ,190.14940041485673  ,138.47265937639008   ,-141.20964569095557   ,-277.38285705873625 ,-3.920447957928939      ,-137.0403656060012  ,          0.0 ,          0.0 ,-141.09634843306043  ,-277.49615431663136 ,-137.0403656060012  ,-555.632868355693   , 79.94723403835968   ,185.2109420258118    ,138.47265937639008   ,-8.064503247893683e-07  ,3.2281221514830997e-07  ,-9.945729809419532e-07  ,      0.0 ,      0.0 ,      0.0 ,5.105786658617097e-07   ,-9.942168220594848e-07  ,      0.0 ,-4.836381561977749e-07  ,7.652415781698704e-07  ,0.3655650136347394   ,0.05702582079125611     ,-7.004081870762628e-07  ,-1.1349990283006025e-07 ,6.153250495113692e-06  ,13.998321561362067     ,0.0 ,19.93909851669053     ,2.375987647323073       ,        0.0 ,        0.0 , 0.0
 0.0 ,0.0 ,           0.0 ,            0.0 ,            0.0 ,            0.0 ,              0.0 ,                   0.0 , 454.0 ,33.10127 ,-15.57242 ,           0.0 ,           0.0 ,       0.0 ,31.33022       ,-18.70544   ,-0.01288075      ,3.244268e-05     ,                 0.0 ,             0.0 ,             0.0 ,                 0.0 ,                 0.0 ,        0.0 ,0.5212345506739865     ,            0.0 ,            0.0 ,            0.0 ,              0.0 ,                   0.0 ,  0.0 ,0.0 , 372.15210146541824  ,1.0                ,0.0 ,-146.90782168316844 ,-284.7996885373916  ,-4.560568241894389      ,-143.16863097236853 ,          0.0 ,          0.0 ,-146.75657627657353 ,-284.9509339439865  ,-143.16863097236853 ,-574.8761411929286  , 80.84311873358729   ,191.62536398378938  ,140.02439436035786   ,-141.98280260071888   ,-279.8746688104002  ,-4.560568241894389      ,-138.24361188991895 ,          0.0 ,          0.0 ,-141.8316065116162   ,-280.02586489950284 ,-138.24361188991895 ,-560.101083301038   , 80.84311873358729   ,186.7003449013398    ,140.02439436035786   ,-7.76766036926063e-07   ,7.343009791546384e-08   ,-1.38953225583116e-06   ,      0.0 ,      0.0 ,      0.0 ,4.69220150157795e-07    ,-1.1725559906852734e-06 ,      0.0 ,-7.033355907173078e-07  ,8.458604848742919e-07  ,0.5697307765277201   ,0.16573648968038082     ,-1.2276731909219923e-05 ,6.629538189485344e-08   ,0.0                    ,1.2286245261324436e-05 ,0.0 ,32.45381343434062     ,4.92502134937811        ,        0.0 ,        0.0 , 0.0
 0.0 ,0.0 ,           0.0 ,            0.0 ,            0.0 ,            0.0 ,              0.0 ,                   0.0 , 455.0 ,24.88351 ,-15.11607 ,           0.0 ,           0.0 ,       0.0 ,35.89694       ,-18.70576   ,-0.02496332      ,-0.003079633     ,                 0.0 ,             0.0 ,             0.0 ,                 0.0 ,                 0.0 ,        0.0 ,3.935365390166245      ,            0.0 ,            0.0 ,            0.0 ,              0.0 ,                   0.0 ,  0.0 ,0.0 , 387.56944878015213  ,1.0                ,0.0 ,-139.82863442381296 ,-276.27727558794453 ,-5.914942471809646      ,-138.576687562701   ,          0.0 ,          0.0 ,-139.5725659678589  ,-276.53334242803334 ,-138.576687562701   ,-554.6825959585933  , 79.36401969926891   ,184.8941827806174   ,137.46247554652288   ,-134.8739251461069    ,-271.3226123111143  ,-5.914942471809646      ,-133.6220259017361  ,          0.0 ,          0.0 ,-134.61790430689396  ,-271.57863315032733 ,-133.6220259017361  ,-539.8185633589574  , 79.36401969926891   ,179.93952111965245   ,137.46247554652288   ,-1.6808212029939844e-06 ,6.505358911931424e-08   ,-2.937555911115798e-06  ,      0.0 ,      0.0 ,      0.0 ,9.030150755221219e-07   ,-2.5187825989249842e-06 ,      0.0 ,-1.6157674600328585e-06 ,1.7734024143444048e-06 ,0.13278037655426786  ,-5.850139167246559e-06  ,-1.7780852405219922e-07 ,0.0                     ,6.105466416213918e-06  ,38.178599474785386     ,0.0 ,0.0                   ,0.0                     ,        0.0 ,        0.0 , 0.0
 0.0 ,0.0 ,           0.0 ,            0.0 ,            0.0 ,            0.0 ,              0.0 ,                   0.0 , 456.0 ,23.05127 ,-14.87234 ,           0.0 ,           0.0 ,       0.0 ,38.30256       ,-18.7026    ,-0.02244894      ,-0.00115504      ,                 0.0 ,             0.0 ,             0.0 ,                 0.0 ,                 0.0 ,        0.0 ,3.8746876519692828     ,            0.0 ,            0.0 ,            0.0 ,              0.0 ,                   0.0 ,  0.0 ,0.0 , 389.68919040455376  ,1.0                ,0.0 ,-135.97262641489374 ,-271.3617934358588  ,-5.898710624830863      ,-135.86291989561755 ,          0.0 ,          0.0 ,-135.71588744297665 ,-271.61853240777583 ,-135.86291989561755 ,-543.1972942647913  , 78.42151567210792   ,181.06576278691918  ,135.83001234777345   ,-131.01464409920783   ,-266.4038625057853  ,-5.898710624830863      ,-130.9049889655441  ,          0.0 ,          0.0 ,-130.75795651290323  ,-266.6605500920899  ,-130.9049889655441  ,-528.3234955705373  , 78.42151567210792   ,176.10783185684573   ,135.83001234777345   ,-1.4275136858273044e-06 ,-5.831363588161875e-08  ,-2.946877517096351e-06  ,      0.0 ,      0.0 ,      0.0 ,8.844895990600964e-07   ,-2.370316777654777e-06  ,      0.0 ,-1.4858276570266033e-06 ,1.6829783179839334e-06 ,0.3402481046785846   ,0.04596920602144576     ,-1.182870378043893e-06  ,-7.881270836879106e-09  ,4.628840195091151e-06  ,18.241840397107154     ,0.0 ,22.38213077350705     ,2.2624311084383613      ,        0.0 ,        0.0 , 0.0
 0.0 ,0.0 ,           0.0 ,            0.0 ,            0.0 ,            0.0 ,              0.0 ,                   0.0 , 457.0 ,21.22638 ,-14.86088 ,           0.0 ,           0.0 ,       0.0 ,38.36761       ,-18.69764   ,-0.02290302      ,-0.00156276      ,                 0.0 ,             0.0 ,             0.0 ,                 0.0 ,                 0.0 ,        0.0 ,4.0                    ,            0.0 ,            0.0 ,            0.0 ,              0.0 ,                   0.0 ,  0.0 ,0.0 , 387.9579896704273   ,1.0                ,0.0 ,-134.76837594337064 ,-271.6895512568281  ,-6.25842914208704       ,-135.7590690673856  ,          0.0 ,          0.0 ,-134.48291136084111 ,-271.97501583935764 ,-135.7590690673856  ,-542.2169960536298  , 79.01627935595386   ,180.738981762862    ,136.86022279452555   ,-129.8100343278445    ,-266.731209641302   ,-6.25842914208704       ,-130.80072745185947 ,          0.0 ,          0.0 ,-129.52446995926945  ,-267.0166742238315  ,-130.80072745185947 ,-527.3419226139587  , 79.01627935595386   ,175.78064014733587   ,136.86022279452555   ,-1.303506806755956e-06  ,-1.8863443126914704e-07 ,-3.0570908290059195e-06 ,      0.0 ,      0.0 ,      0.0 ,8.862250556098794e-07   ,-2.378365998406793e-06  ,      0.0 ,-1.4921415384530116e-06 ,1.688189554575377e-06  ,0.1273455115601396   ,0.0002105657459128688   ,-6.413366739831501e-08  ,-3.707507632418663e-11  ,5.703998676749862e-06  ,40.75349891504436      ,0.0 ,0.10529002541604056   ,0.010642929009756231    ,        0.0 ,        0.0 , 0.0
 0.0 ,0.0 ,           0.0 ,            0.0 ,            0.0 ,            0.0 ,              0.0 ,                   0.0 , 458.0 ,19.3874  ,-14.92238 ,           0.0 ,           0.0 ,       0.0 ,37.67967       ,-18.69034   ,-0.02416014      ,-0.00129638      ,                 0.0 ,             0.0 ,             0.0 ,                 0.0 ,                 0.0 ,        0.0 ,3.4532428554184413     ,            0.0 ,            0.0 ,            0.0 ,              0.0 ,                   0.0 ,  0.0 ,0.0 , 384.71924982251505  ,1.0                ,0.0 ,-134.6350265071217  ,-273.036963115559   ,-6.564472510843096      ,-136.31377948068908 ,          0.0 ,          0.0 ,-134.32364678557812 ,-273.3482927340793  ,-136.31377948068908 ,-543.9857190003464  , 79.6977783768659    ,181.32859008218085  ,138.04061392341436   ,-129.68089954763846   ,-268.082835012903   ,-6.564472510843096      ,-131.35970148105636 ,          0.0 ,          0.0 ,-129.3695211753143   ,-268.3942147344466  ,-131.35970148105636 ,-529.123387287794   , 79.6977783768659    ,176.37446197952482   ,138.04061392341436   ,-2.508410082606281e-06  ,1.1656480232563195e-08  ,-2.1091563632149307e-06 ,      0.0 ,      0.0 ,      0.0 ,6.017443854247452e-07   ,-3.0984976939264203e-06 ,      0.0 ,-2.4967539991502463e-06 ,1.9936820940563045e-06 ,0.13729822715125423  ,0.0008752963919300378   ,-7.654009090195003e-09  ,-9.770239401226404e-09  ,1.3604710583763836e-05 ,39.224993240783974     ,0.0 ,0.7328641816613559    ,0.05698557443941954     ,        0.0 ,        0.0 , 0.0
 0.0 ,0.0 ,           0.0 ,            0.0 ,            0.0 ,            0.0 ,              0.0 ,                   0.0 , 459.0 ,17.51673 ,-15.00816 ,           0.0 ,           0.0 ,       0.0 ,36.71792       ,-18.67996   ,-0.02697795      ,-0.001278843     ,                 0.0 ,             0.0 ,             0.0 ,                 0.0 ,                 0.0 ,        0.0 ,1.7153094773281152     ,            0.0 ,            0.0 ,            0.0 ,              0.0 ,                   0.0 ,  0.0 ,0.0 , 366.7458310776952   ,1.0                ,0.0 ,-134.0993099712052  ,-274.6896238704605  ,-6.736187385957407      ,-136.91370913966557 ,          0.0 ,          0.0 ,-133.77288408357123 ,-275.0160273106137  ,-136.91370913966557 ,-545.7026205338504  , 80.65683348863516   ,181.9008894798659   ,139.70171197966806   ,-129.15452828437822   ,-269.744816725367   ,-6.736187385957407      ,-131.96892444205278 ,          0.0 ,          0.0 ,-128.82812484422496  ,-270.071242613001   ,-131.96892444205278 ,-530.8682694517979  , 80.65683348863516   ,176.95608233477242   ,139.70171197966806   ,-1.960286937834654e-06  ,-2.863877528155358e-08  ,-1.501199563699573e-06  ,      0.0 ,      0.0 ,      0.0 ,2.751547250007982e-07   ,-2.264080728235042e-06  ,      0.0 ,-1.9889262421076336e-06 ,1.3935227008995308e-06 ,0.2719167844468392   ,0.019781265132481372    ,6.451131835266428e-07   ,-2.1758159498141693e-07 ,1.441184420433108e-05  ,22.223528900250248     ,0.0 ,16.32076257318862     ,1.2690591978641577      ,        0.0 ,        0.0 , 0.0
 0.0 ,0.0 ,           0.0 ,            0.0 ,            0.0 ,            0.0 ,              0.0 ,                   0.0 , 460.0 ,15.60423 ,-15.11575 ,           0.0 ,           0.0 ,       0.0 ,35.49709       ,-18.66546   ,-0.0308572       ,-0.0002580521    ,                 0.0 ,             0.0 ,             0.0 ,                 0.0 ,                 0.0 ,        0.0 ,3.5694515713443        ,            0.0 ,            0.0 ,            0.0 ,              0.0 ,                   0.0 ,  0.0 ,0.0 , 366.11464296475754  ,1.0                ,0.0 ,-133.50762393465666 ,-276.6553180296779  ,-7.131425287135459      ,-137.62328622935422 ,          0.0 ,          0.0 ,-133.14922028299048 ,-277.01374722314745 ,-137.62328622935422 ,-547.7862281936888  , 81.80144138645649   ,182.595427041488    ,141.6842229370867    ,-128.5667884141456    ,-271.7145354399421  ,-7.131425287135459      ,-132.68245070884313 ,          0.0 ,          0.0 ,-128.20838476247945  ,-272.07296463341163 ,-132.68245070884313 ,-532.9637216321556  , 81.80144138645649   ,177.65459152097696   ,141.6842229370867    ,-7.870465447323634e-07  ,-6.810674320057767e-07  ,-2.5967614511230636e-06 ,      0.0 ,      0.0 ,      0.0 ,7.36106939231047e-07    ,-2.2042208371049517e-06 ,      0.0 ,-1.4681142840552023e-06 ,1.5355168832691438e-06 ,0.28043399160516985  ,0.019012711243276       ,-4.1189267430201386e-07 ,-5.426711151430309e-09  ,1.0263097642105303e-05 ,21.308589184959786     ,0.0 ,17.099637106212082    ,1.2735434323714656      ,        0.0 ,        0.0 , 0.0
 0.0 ,0.0 ,           0.0 ,            0.0 ,            0.0 ,            0.0 ,              0.0 ,                   0.0 , 461.0 ,13.62552 ,-15.2653  ,           0.0 ,           0.0 ,       0.0 ,33.7989        ,-18.64519   ,-0.03701303      ,-0.001811336     ,                 0.0 ,             0.0 ,             0.0 ,                 0.0 ,                 0.0 ,        0.0 ,3.445552569436744      ,            0.0 ,            0.0 ,            0.0 ,              0.0 ,                   0.0 ,  0.0 ,0.0 , 365.1076521986138   ,1.0                ,0.0 ,-133.95279394003313 ,-280.17587134750477 ,-7.0697267099778305     ,-139.15952623614356 ,          0.0 ,          0.0 ,-133.6083191666261  ,-280.5203461209118  ,-139.15952623614356 ,-553.2881915236815  , 83.26777949178172   ,184.4294034071033   ,144.2240440593076    ,-129.02226380180934   ,-275.2453148052178  ,-7.0697267099778305     ,-134.22900644097112 ,          0.0 ,          0.0 ,-128.67779161416516  ,-275.5898450233679  ,-134.22900644097112 ,-538.4965508357927  , 83.26777949178172   ,179.4988836119309    ,144.2240440593076    ,-1.97450389532569e-06   ,-6.525646766395644e-07  ,-2.052877196593723e-06  ,      0.0 ,      0.0 ,      0.0 ,6.283854363575016e-07   ,-3.2554539790404285e-06 ,      0.0 ,-2.627068580776524e-06  ,2.1089798637248132e-06 ,0.2968390349955813   ,0.019227986385198473    ,9.694434504449365e-07   ,-6.420299168111027e-09  ,2.429334102550332e-05  ,19.45301746186422      ,0.0 ,17.316452974925912    ,1.2892929004664664      ,        0.0 ,        0.0 , 0.0
 0.0 ,0.0 ,           0.0 ,            0.0 ,            0.0 ,            0.0 ,              0.0 ,                   0.0 , 462.0 ,11.51717 ,-15.50774 ,           0.0 ,           0.0 ,       0.0 ,31.08984       ,-18.61672   ,-0.04545932      ,-0.0005190155    ,                 0.0 ,             0.0 ,             0.0 ,                 0.0 ,                 0.0 ,        0.0 ,2.786076890122766      ,            0.0 ,            0.0 ,            0.0 ,              0.0 ,                   0.0 ,  0.0 ,0.0 , 390.8494870885526   ,1.0                ,0.0 ,-134.7344423019298  ,-285.3542677421526  ,-7.154827654467423      ,-141.41071194775094 ,          0.0 ,          0.0 ,-134.39436275595747 ,-285.6943852170537  ,-141.41071194775094 ,-561.4994599207621  , 85.40600703613217   ,187.16647950948368  ,147.92754119058873   ,-129.7989023930033    ,-280.4186988353906  ,-7.154827654467423      ,-136.4751720388244  ,          0.0 ,          0.0 ,-129.4588393836488   ,-280.75886184474507 ,-136.4751720388244  ,-546.6928111961471  , 85.40600703613217   ,182.2309396005572    ,147.92754119058873   ,-1.4615646971464864e-06 ,-1.4141984685751827e-06 ,-2.249608513785754e-06  ,      0.0 ,      0.0 ,      0.0 ,6.317896132445241e-07   ,-3.507553317954962e-06  ,      0.0 ,-2.875763241859074e-06  ,2.2435566008699313e-06 ,0.23097354549526777  ,0.027468307324418396    ,-9.448201639943727e-07  ,-3.345538037267465e-08  ,1.9683491580283635e-05 ,29.48820963377444      ,0.0 ,4.90497251873432      ,0.8153280204114064      ,        0.0 ,        0.0 , 0.0
 0.0 ,0.0 ,           0.0 ,            0.0 ,            0.0 ,            0.0 ,              0.0 ,                   0.0 , 463.0 ,9.480494 ,-15.0504  ,           0.0 ,           0.0 ,       0.0 ,35.16492       ,-18.56689   ,-0.04684243      ,-0.0003773186    ,                 0.0 ,             0.0 ,             0.0 ,                 0.0 ,                 0.0 ,        0.0 ,2.0268236568301115     ,            0.0 ,            0.0 ,            0.0 ,              0.0 ,                   0.0 ,  0.0 ,0.0 , 380.9043777550593   ,1.0                ,0.0 ,-128.30565556476293 ,-277.7621313973233  ,-6.336936899185956      ,-137.08061224642455 ,          0.0 ,          0.0 ,-128.03683977713786 ,-278.0310458437655  ,-137.08061224642455 ,-543.1484978673279  , 84.11024746421808   ,181.04949868819625  ,145.68318190385588   ,-123.35135707932064   ,-272.8078342530638  ,-6.336936899185956      ,-132.12631376098224 ,          0.0 ,          0.0 ,-123.08249487543083  ,-273.07670094205844 ,-132.12631376098224 ,-528.2855082372888  , 84.11024746421808   ,176.09515244530638   ,145.68318190385588   ,2.12941272655858e-07    ,-2.7771443703730713e-06 ,-2.592368954115117e-06  ,      0.0 ,      0.0 ,      0.0 ,6.976445500882758e-07   ,-3.2618481518725233e-06 ,      0.0 ,-2.5642032995199526e-06 ,2.114986090008219e-06  ,0.36491452290161275  ,0.0783053592558113      ,-7.218699270296511e-06  ,-2.0766477963614003e-07 ,2.207518082951776e-06  ,23.951468452737604     ,0.0 ,15.196063647805685    ,2.4235054636329543      ,        0.0 ,        0.0 , 0.0
 0.0 ,0.0 ,           0.0 ,            0.0 ,            0.0 ,            0.0 ,              0.0 ,                   0.0 , 464.0 ,7.551217 ,-14.9368  ,           0.0 ,           0.0 ,       0.0 ,35.68801       ,-18.5056    ,-0.04032961      ,0.001720058      ,                 0.0 ,             0.0 ,             0.0 ,                 0.0 ,                 0.0 ,        0.0 ,2.9671252221510818     ,            0.0 ,            0.0 ,            0.0 ,              0.0 ,                   0.0 ,  0.0 ,0.0 , 382.03081287382287  ,1.0                ,0.0 ,-125.26185164974302 ,-276.25041405792143 ,-5.46120152542964       ,-135.87723834855336 ,          0.0 ,          0.0 ,-125.0614895035767  ,-276.45087620408776 ,-135.87723834855336 ,-537.3895556999568  , 84.46241060030418   ,179.12988431440314  ,146.29315565112836   ,-120.30639787176098   ,-271.29496027993946 ,-5.46120152542964       ,-130.9217362143102  ,          0.0 ,          0.0 ,-120.10593710396834  ,-271.4953238044794  ,-130.9217362143102  ,-522.522997122758   , 84.46241060030418   ,174.17433191479478   ,146.29315565112836   ,1.968440909809905e-06   ,-4.2780216842951485e-06 ,-2.504988617013554e-06  ,      0.0 ,      0.0 ,      0.0 ,2.277780608138957e-06   ,-4.5873614941819204e-06 ,      0.0 ,-2.3095808288857303e-06 ,3.5289917634022643e-06 ,0.6364902049273442   ,0.12821531793342802     ,-8.4877959164161e-06    ,-3.355685447723643e-07  ,5.977805395227528e-08  ,0.6485974047958221     ,0.0 ,39.74042163849843     ,4.886974701630978       ,        0.0 ,        0.0 , 0.0
 0.0 ,0.0 ,           0.0 ,            0.0 ,            0.0 ,            0.0 ,              0.0 ,                   0.0 , 465.0 ,7.322692 ,-16.7579  ,           0.0 ,           0.0 ,       0.0 ,18.01356       ,-18.55925   ,-0.03431404      ,0.00135925       ,                 0.0 ,             0.0 ,             0.0 ,                 0.0 ,                 0.0 ,        0.0 ,1.0158018662995483     ,            0.0 ,            0.0 ,            0.0 ,              0.0 ,                   0.0 ,  0.0 ,0.0 , 382.87480133070596  ,1.0                ,0.0 ,-144.2790269673679  ,-310.4959765939178  ,-6.843922019584581      ,-153.40745940476407 ,          0.0 ,          0.0 ,-143.9914286258338  ,-310.7835749354519  ,-153.40745940476407 ,-608.1824645462365  , 93.70337618938285   ,202.72752046195438  ,162.29901032956974   ,-139.46727071717586   ,-305.6841728631875  ,-6.843922019584581      ,-148.59570473475867 ,          0.0 ,          0.0 ,-139.17962331491685  ,-305.9717709063581  ,-148.59570473475867 ,-593.7471483151221  , 93.70337618938285   ,197.91571673122408   ,162.29901032956974   ,1.9554643135657212e-06  ,-5.555056392813963e-06  ,-3.691741372597784e-06  ,      0.0 ,      0.0 ,      0.0 ,2.3947492782911294e-06  ,-5.994341118942181e-06  ,      0.0 ,-3.599591828009558e-06  ,4.357023663695815e-06  ,0.6327427426920185   ,0.24795191163839353     ,-4.813806708494914e-05  ,2.1290350194207093e-06  ,2.7805690826535215e-06 ,0.20145679088111126    ,0.0 ,22.06094221047189     ,4.738226905980921       ,        0.0 ,        0.0 , 0.0
 0.0 ,0.0 ,           0.0 ,            0.0 ,            0.0 ,            0.0 ,              0.0 ,                   0.0 , 466.0 ,7.273779 ,-18.56748 ,           0.0 ,           0.0 ,       0.0 ,0.5875174      ,-18.62623   ,-0.02730571      ,0.002430419      ,                 0.0 ,             0.0 ,             0.0 ,                 0.0 ,                 0.0 ,        0.0 ,1.0498292358976946     ,            0.0 ,            0.0 ,            0.0 ,              0.0 ,                   0.0 ,  0.0 ,0.0 , 383.8555024942435   ,1.0                ,0.0 ,-160.78478283906773 ,-337.9976952848476  ,-7.698203442987321      ,-167.80221670957457 ,          0.0 ,          0.0 ,-160.4472353251344  ,-338.33524279878105 ,-167.80221670957457 ,-666.5847420602897  ,100.6504177954515    ,222.19489769286756  ,174.33165166316405   ,-162.21943973529795   ,-339.43240116276496 ,-7.698203442987321      ,-169.23692258749182 ,          0.0 ,          0.0 ,-161.8818922213646   ,-339.76994867669833 ,-169.23692258749182 ,-670.8888145038677  ,100.6504177954515    ,223.6296053256722    ,174.33165166316405   ,-2.6774135641492412e-09 ,-4.749129495626418e-06  ,-2.0786066810319953e-06 ,      0.0 ,      0.0 ,      0.0 ,2.237092247256004e-07   ,-4.9755163692610035e-06 ,      0.0 ,-4.751806736887921e-06  ,2.939404995127213e-06  ,0.4948515271732809   ,0.5100969648533479      ,0.0019129984919591051   ,-0.015309467522049851   ,8.619042979090974e-05  ,6.258618607781128      ,0.0 ,-3.714616545183509    ,-3.714616545183509      ,        0.0 ,        0.0 , 0.0
 0.0 ,0.0 ,           0.0 ,            0.0 ,            0.0 ,            0.0 ,              0.0 ,                   0.0 , 467.0 ,7.3116   ,-20.38699 ,           0.0 ,           0.0 ,       0.0 ,-16.95999      ,-18.69099   ,-0.02398518      ,0.003264152      ,                 0.0 ,             0.0 ,             0.0 ,                 0.0 ,                 0.0 ,        0.0 ,2.9963770905964155     ,            0.0 ,            0.0 ,            0.0 ,              0.0 ,                   0.0 ,  0.0 ,0.0 , 375.0036229094036   ,1.0                ,0.0 ,-174.43892755804316 ,-358.97779822892846 ,-8.747335012282628      ,-178.33442183104552 ,          0.0 ,          0.0 ,-174.02359876280713 ,-359.3931779950143  ,-178.33442183104552 ,-711.7511495597167  ,105.8042919831906    ,237.25038371304174  ,183.2584401508508    ,-188.5447406097956    ,-373.08366067212216 ,-8.747335012282628      ,-192.44023330338945 ,          0.0 ,          0.0 ,-188.12941023515106  ,-373.4989894673582  ,-192.44023330338945 ,-754.0686836144575  ,105.8042919831906    ,251.35624421453593   ,183.2584401508508    ,-1.1071052198784847e-06 ,-2.8296524615290006e-05 ,-5.945964520533726e-06  ,      0.0 ,      0.0 ,      0.0 ,-7.752483297337347e-07  ,-2.8628384647252408e-05 ,      0.0 ,-2.9403633045432287e-05 ,1.6329018277251077e-05 ,0.8160361073659083   ,0.4883893177796008      ,-0.0012094383084326316  ,-2.4109893424255844e-05 ,0.0019022066012256288  ,-11.347841968227565    ,0.0 ,-2.7567811527616968   ,-2.7567811527616968     ,        0.0 ,        0.0 , 0.0
 0.0 ,0.0 ,           0.0 ,            0.0 ,            0.0 ,            0.0 ,              0.0 ,                   0.0 , 468.0 ,9.085179 ,-20.18292 ,           0.0 ,           0.0 ,       0.0 ,-14.99302      ,-18.68361   ,-0.0207608       ,0.002375068      ,                 0.0 ,             0.0 ,             0.0 ,                 0.0 ,                 0.0 ,        0.0 ,2.0003136665091237     ,            0.0 ,            0.0 ,            0.0 ,              0.0 ,                   0.0 ,  0.0 ,0.0 , 385.79125153309343  ,1.0                ,0.0 ,-172.77143646764773 ,-353.7457526805371  ,-9.084174202498502      ,-176.30169875520076 ,          0.0 ,          0.0 ,-172.31576243164614 ,-354.2014287899084  ,-176.30169875520076 ,-702.8188899767553  ,103.8853846744226    ,234.27294700186619  ,179.934770125166     ,-186.3979766309862    ,-367.37229491724526 ,-9.084174202498502      ,-189.92823891853922 ,          0.0 ,          0.0 ,-185.9423025949846   ,-367.82796895324685 ,-189.92823891853922 ,-743.6985594222442  ,103.8853846744226    ,247.89948716520462   ,179.934770125166     ,-9.577802823255641e-07  ,-1.2813178384870098e-05 ,-3.3634718506716927e-06 ,      0.0 ,      0.0 ,      0.0 ,-7.23814748299511e-07   ,-1.3047142980940409e-05 ,      0.0 ,-1.3770955301415776e-05 ,7.332892560431244e-06  ,0.8135495543842268   ,0.4882342761859405      ,0.0019363072978805425   ,-0.015212908494327253   ,0.001320475326853413   ,-10.017872434286403    ,0.0 ,-3.59334007727135     ,-3.59334007727135       ,        0.0 ,        0.0 , 0.0
 0.0 ,0.0 ,           0.0 ,            0.0 ,            0.0 ,            0.0 ,              0.0 ,                   0.0 , 469.0 ,10.8388  ,-19.89119 ,           0.0 ,           0.0 ,       0.0 ,-12.0911       ,-18.68208   ,-0.01744333      ,0.00145657       ,                 0.0 ,             0.0 ,             0.0 ,                 0.0 ,                 0.0 ,        0.0 ,1.0443348940740411     ,            0.0 ,            0.0 ,            0.0 ,              0.0 ,                   0.0 ,  0.0 ,0.0 , 386.86152981827206  ,1.0                ,0.0 ,-171.49468094509243 ,-349.386460131906   ,-9.180015284701923      ,-174.27797337006103 ,          0.0 ,          0.0 ,-171.02004041601447 ,-349.8610513451177  ,-174.27797337006103 ,-695.1591144470594  ,102.33091225192945   ,231.7197206886571   ,177.24236798791662   ,-182.2888755962099    ,-360.1807040988897  ,-9.180015284701923      ,-185.07221733704478 ,          0.0 ,          0.0 ,-181.81428438299818  ,-360.6552953121014  ,-185.07221733704478 ,-727.5418463480106  ,102.33091225192945   ,242.5139646556408    ,177.24236798791662   ,-1.2311270852518143e-06 ,-1.256162663809914e-05  ,-3.0192887499354308e-06 ,      0.0 ,      0.0 ,      0.0 ,-1.033409372520508e-06  ,-1.275934579472391e-05  ,      0.0 ,-1.379275705667478e-05  ,7.087223131855555e-06  ,1.0                  ,0.001231398022872171    ,-0.011401884741259605   ,0.0                     ,0.013621928649226372   ,-10.794246416342677    ,0.0 ,0.0                   ,0.0                     ,        0.0 ,        0.0 , 0.0
 0.0 ,0.0 ,           0.0 ,            0.0 ,            0.0 ,            0.0 ,              0.0 ,                   0.0 , 470.0 ,12.56647 ,-19.43303 ,           0.0 ,           0.0 ,       0.0 ,-7.507394      ,-18.68229   ,-0.01284101      ,0.001802019      ,                 0.0 ,             0.0 ,             0.0 ,                 0.0 ,                 0.0 ,        0.0 ,2.5614106945443256     ,            0.0 ,            0.0 ,            0.0 ,              0.0 ,                   0.0 ,  0.0 ,0.0 , 388.5244151776824   ,1.0                ,0.0 ,-169.80826212770265 ,-345.1343170905085  ,-9.425343157761267      ,-171.8796923271574  ,          0.0 ,          0.0 ,-169.30283329606175 ,-345.6398448082136  ,-171.8796923271574  ,-686.8222715453684  ,101.07427102367984   ,228.940789772499    ,175.06570787186027   ,-174.57561458103766   ,-349.9016706577793  ,-9.425343157761267      ,-176.64699868407524 ,          0.0 ,          0.0 ,-174.07008797726837  ,-350.4070983754844  ,-176.64699868407524 ,-701.1242839228921  ,101.07427102367984   ,233.70809612941682   ,175.06570787186027   ,-9.156480218912319e-07  ,-2.2390409361225098e-05 ,-4.931666122582602e-06  ,      0.0 ,      0.0 ,      0.0 ,-6.308389193489897e-07  ,-2.2675217357511014e-05 ,      0.0 ,-2.3306059535334714e-05 ,1.2916169337721145e-05 ,0.9544272801251218   ,0.0032403730181768467   ,-4.932453208548064e-05  ,7.538629513971195e-08   ,0.0021127912774583143  ,-4.728906145443866     ,0.0 ,0.10165180937992387   ,0.048845304578957256    ,        0.0 ,        0.0 , 0.0
 0.0 ,0.0 ,           0.0 ,            0.0 ,            0.0 ,            0.0 ,              0.0 ,                   0.0 , 471.0 ,14.36342 ,-19.10055 ,           0.0 ,           0.0 ,       0.0 ,-4.135324      ,-18.68702   ,-0.01304101      ,0.001209212      ,                 0.0 ,             0.0 ,             0.0 ,                 0.0 ,                 0.0 ,        0.0 ,1.5137716832698678     ,            0.0 ,            0.0 ,            0.0 ,              0.0 ,                   0.0 ,  0.0 ,0.0 , 389.173815954765    ,1.0                ,0.0 ,-168.11848402419167 ,-339.9404440455045  ,-9.22687122200033       ,-169.5413035567941  ,          0.0 ,          0.0 ,-167.62413936676728 ,-340.43483805160133 ,-169.5413035567941  ,-677.6002316264903  , 99.22395187605898   ,225.8667434412784   ,171.86088813390793   ,-171.9527108911648    ,-343.7747215638051  ,-9.22687122200033       ,-173.37553196836924 ,          0.0 ,          0.0 ,-171.45836753639549  ,-344.26901556990197 ,-173.37553196836924 ,-689.102964423339   , 99.22395187605898   ,229.7009718528535    ,171.86088813390793   ,-2.086553676018789e-06  ,-1.6939014489699027e-05 ,-4.843164971344862e-06  ,      0.0 ,      0.0 ,      0.0 ,-1.641430306758222e-06  ,-1.7384136387209508e-05 ,      0.0 ,-1.9025567180476578e-05 ,9.62800643362417e-06   ,0.7964170631440814   ,0.24232571163726574     ,-0.00021787213602253647 ,3.4278599948730235e-06  ,0.0010620787924163274  ,-6.054646762963491     ,0.0 ,4.6221686598887395    ,2.2210252565574673      ,        0.0 ,        0.0 , 0.0
 0.0 ,0.0 ,           0.0 ,            0.0 ,            0.0 ,            0.0 ,              0.0 ,                   0.0 , 472.0 ,16.19155 ,-18.84937 ,           0.0 ,           0.0 ,       0.0 ,-1.562782      ,-18.69309   ,-0.01059053      ,0.000797394      ,                 0.0 ,             0.0 ,             0.0 ,                 0.0 ,                 0.0 ,        0.0 ,1.99975718227333       ,            0.0 ,            0.0 ,            0.0 ,              0.0 ,                   0.0 ,  0.0 ,0.0 , 389.9633329148495   ,1.0                ,0.0 ,-167.32540027448306 ,-337.11090704065805 ,-8.909177540043506      ,-168.2254471020917  ,          0.0 ,          0.0 ,-166.85919143910422 ,-337.5771660770449  ,-168.2254471020917  ,-672.6617544172327  , 98.17355881633762   ,224.22058493974964  ,170.04154630873612   ,-168.7757497671409    ,-338.561356509034   ,-8.909177540043506      ,-169.6758463694597  ,          0.0 ,          0.0 ,-168.3095907064722   ,-339.02751554542095 ,-169.6758463694597  ,-677.0129526456345  , 98.17355881633762   ,225.6709842071176    ,170.04154630873612   ,-2.661123079129298e-06  ,-1.5649785111299004e-05 ,-4.339857495185982e-06  ,      0.0 ,      0.0 ,      0.0 ,-2.2505946115376797e-06 ,-1.6060313578162167e-05 ,      0.0 ,-1.8310907692195562e-05 ,8.709555272437062e-06  ,0.5953054855751316   ,0.7410588145788211      ,-0.002055834774148746   ,-1.7911683693801753e-05 ,5.226265486385924e-07  ,-0.0009404997943167069 ,0.0 ,0.913334730282056     ,-1.4474034145813435     ,        0.0 ,        0.0 , 0.0
 0.0 ,0.0 ,           0.0 ,            0.0 ,            0.0 ,            0.0 ,              0.0 ,                   0.0 , 473.0 ,18.02531 ,-18.63602 ,           0.0 ,           0.0 ,       0.0 ,0.6262346      ,-18.69864   ,-0.007901763     ,0.0001972186     ,                 0.0 ,             0.0 ,             0.0 ,                 0.0 ,                 0.0 ,        0.0 ,1.002755087555686      ,            0.0 ,            0.0 ,            0.0 ,              0.0 ,                   0.0 ,  0.0 ,0.0 , 391.14273220277556  ,1.0                ,0.0 ,-165.84381468557814 ,-333.21755866802505 ,-8.507673194749053      ,-166.46067801956497 ,          0.0 ,          0.0 ,-165.41191824227764 ,-333.6494542124683  ,-166.46067801956497 ,-665.5220012173311  , 96.83142618619206   ,221.840700405777    ,167.71690032182477   ,-167.11490969783574   ,-334.4887029372625  ,-8.507673194749053      ,-167.73177244463955 ,          0.0 ,          0.0 ,-166.68301325453524  ,-334.92054922472585 ,-167.73177244463955 ,-669.3353349239005  , 96.83142618619206   ,223.11179483085158   ,167.71690032182477   ,-1.3434735179176735e-06 ,-1.1080967662819804e-05 ,-2.4616958842850473e-06 ,      0.0 ,      0.0 ,      0.0 ,-1.1859616636515226e-06 ,-1.1238479517085954e-05 ,      0.0 ,-1.2424441180737478e-05 ,6.176739949188468e-06  ,0.509632815928623    ,0.4951806061953263      ,-0.001997685697491861   ,-2.078229142778951e-05  ,0.00022512236844238846 ,5.300628820695028      ,0.0 ,-3.501064583327752    ,-3.5378529564706427     ,        0.0 ,        0.0 , 0.0
 0.0 ,0.0 ,           0.0 ,            0.0 ,            0.0 ,            0.0 ,              0.0 ,                   0.0 , 474.0 ,19.84706 ,-18.43189 ,           0.0 ,           0.0 ,       0.0 ,2.710731       ,-18.70296   ,-0.006859056     ,-6.16924e-05     ,                 0.0 ,             0.0 ,             0.0 ,                 0.0 ,                 0.0 ,        0.0 ,2.4863299521939313     ,            0.0 ,            0.0 ,            0.0 ,              0.0 ,                   0.0 ,  0.0 ,0.0 , 396.16599353043546  ,1.0                ,0.0 ,-165.56123564544455 ,-330.5916325381731  ,-8.22023466603829       ,-165.31444467085925 ,          0.0 ,          0.0 ,-165.15266908295152 ,-331.0002480671503  ,-165.31444467085925 ,-661.4673618209611  , 95.70573565918014   ,220.48915394032036  ,165.76721743372514   ,-165.8271388818666    ,-330.8575357745951  ,-8.22023466603829       ,-165.5803479072813  ,          0.0 ,          0.0 ,-165.41852301940045  ,-331.26610200359926 ,-165.5803479072813  ,-662.2649729302809  , 95.70573565918014   ,220.7550078767693    ,165.76721743372514   ,-3.4093021953694683e-06 ,-1.0007217891193563e-05 ,-3.027826218510681e-06  ,      0.0 ,      0.0 ,      0.0 ,-2.1318150611200254e-06 ,-1.1284708476441124e-05 ,      0.0 ,-1.3416520579562762e-05 ,6.00407414314657e-06   ,0.5866794200849125   ,0.6557142244326561      ,-0.002826232876343368   ,-1.3919781416893853e-05 ,1.4968510808673895e-06 ,0.03805715858892063    ,0.0 ,4.713040655703908     ,-0.2809350557271908     ,        0.0 ,        0.0 , 0.0
 0.0 ,0.0 ,           0.0 ,            0.0 ,            0.0 ,            0.0 ,              0.0 ,                   0.0 , 475.0 ,21.64535 ,-18.20541 ,           0.0 ,           0.0 ,       0.0 ,5.005887       ,-18.706     ,-0.004375184     ,-0.0002214045    ,                 0.0 ,             0.0 ,             0.0 ,                 0.0 ,                 0.0 ,        0.0 ,1.4700611519853926     ,            0.0 ,            0.0 ,            0.0 ,              0.0 ,                   0.0 ,  0.0 ,0.0 , 397.7514081071547   ,1.0                ,0.0 ,-164.43617328412228 ,-327.797523718538   ,-7.643775746314032      ,-164.0180833312129  ,          0.0 ,          0.0 ,-164.07872155614018 ,-328.154926298325   ,-164.0180833312129  ,-656.2517798954029  , 94.74720789963547   ,218.75057720804944  ,164.1069706163928    ,-163.54721162763497   ,-326.90856250052093 ,-7.643775746314032      ,-163.12912167472558 ,          0.0 ,          0.0 ,-163.189809047848    ,-327.2659650803079  ,-163.12912167472558 ,-653.5848958028815  , 94.74720789963547   ,217.86161555156212   ,164.1069706163928    ,-2.118196509796453e-06  ,-8.144725941331357e-06  ,-1.2414451280456412e-06 ,      0.0 ,      0.0 ,      0.0 ,-2.0548912157737244e-06 ,-8.208026833940035e-06  ,      0.0 ,-1.0262919528544319e-05 ,4.271346682336132e-06  ,0.6555245819271905   ,0.001624408738506617    ,2.3255046268532225e-05  ,-1.3805306698162362e-07 ,0.002842199977080044   ,5.854110801435983      ,0.0 ,0.0008575114895786604 ,0.0008568564149909163   ,        0.0 ,        0.0 , 0.0
 0.0 ,0.0 ,           0.0 ,            0.0 ,            0.0 ,            0.0 ,              0.0 ,                   0.0 , 476.0 ,23.41077 ,-17.89373 ,           0.0 ,           0.0 ,       0.0 ,8.141264       ,-18.70786   ,-0.00101879      ,0.0007395777     ,                 0.0 ,             0.0 ,             0.0 ,                 0.0 ,                 0.0 ,        0.0 ,2.4912467244353547     ,            0.0 ,            0.0 ,            0.0 ,              0.0 ,                   0.0 ,  0.0 ,0.0 , 399.0040115967329   ,1.0                ,0.0 ,-163.38036608328468 ,-324.3001806632152  ,-7.196719573843593      ,-162.406478846823   ,          0.0 ,          0.0 ,-163.0583730725825  ,-324.6220736739174  ,-162.406478846823   ,-650.086977244184   , 93.46786828418578   ,216.6956579808206   ,161.89110810793363   ,-160.70593157991692   ,-321.62579198279775 ,-7.196719573843593      ,-159.7320443434552  ,          0.0 ,          0.0 ,-160.38398439216502  ,-321.94768499349993 ,-159.7320443434552  ,-642.0637679061699  , 93.46786828418578   ,214.02122347745282   ,161.89110810793363   ,-3.2580733907473503e-06 ,-6.7528945355220446e-06 ,-2.4043715915997135e-06 ,      0.0 ,      0.0 ,      0.0 ,-6.718790262675582e-07  ,-9.339087631862031e-06  ,      0.0 ,-1.0010968210912676e-05 ,5.242802641724682e-06  ,0.5862374642720476   ,0.5902727965997843      ,-0.001850273030624256   ,-1.1464320555504996e-05 ,2.1068534406446855e-05 ,0.12620678995211054    ,0.0 ,9.826670486120705     ,2.5857819615539763      ,        0.0 ,        0.0 , 0.0
 0.0 ,0.0 ,           0.0 ,            0.0 ,            0.0 ,            0.0 ,              0.0 ,                   0.0 , 477.0 ,25.15252 ,-17.32645 ,           0.0 ,           0.0 ,       0.0 ,13.81718       ,-18.70816   ,-0.0002304095    ,0.0005283964     ,                 0.0 ,             0.0 ,             0.0 ,                 0.0 ,                 0.0 ,        0.0 ,1.4361043025210134     ,            0.0 ,            0.0 ,            0.0 ,              0.0 ,                   0.0 ,  0.0 ,0.0 , 399.19910306498554  ,1.0                ,0.0 ,-159.17258587603786 ,-315.6037318194206  ,-6.403352383774531      ,-158.14244989676018 ,          0.0 ,          0.0 ,-158.9105006457627  ,-315.86581935109206 ,-158.14244989676018 ,-632.9187666130603  , 90.84084068035118   ,210.97290624763892  ,157.34096714923285   ,-154.50860932636206   ,-310.93980544128465 ,-6.403352383774531      ,-153.4784733470844  ,          0.0 ,          0.0 ,-154.24652409608694  ,-311.2018428014163  ,-153.4784733470844  ,-618.9268881147312  , 90.84084068035118   ,206.30892969796312   ,157.34096714923285   ,-1.976433280628769e-06  ,2.5872405134870457e-07  ,-7.647001699164285e-07  ,      0.0 ,      0.0 ,      0.0 ,3.2232011132039775e-07  ,-2.04002972356161e-06   ,      0.0 ,-1.7177095165009248e-06 ,1.281035196039097e-06  ,0.576880404653431    ,0.34541230494200603     ,-3.3021044535140056e-05 ,-5.172186044779746e-05  ,9.370009956720184e-08  ,0.24582476131569383    ,0.0 ,14.312894127595182    ,4.615952788634532       ,        0.0 ,        0.0 , 0.0
 0.0 ,0.0 ,           0.0 ,            0.0 ,            0.0 ,            0.0 ,              0.0 ,                   0.0 , 478.0 ,26.76644 ,-16.05529 ,           0.0 ,           0.0 ,       0.0 ,26.52654       ,-18.70795   ,-0.02008779      ,-0.001876107     ,                 0.0 ,             0.0 ,             0.0 ,                 0.0 ,                 0.0 ,        0.0 ,2.158365626910797      ,            0.0 ,            0.0 ,            0.0 ,              0.0 ,                   0.0 ,  0.0 ,0.0 , 385.1794450591408   ,1.0                ,0.0 ,-149.09587275058723 ,-293.3910485014532  ,-5.919172359647774      ,-147.2174678934328  ,          0.0 ,          0.0 ,-148.85291422947904 ,-293.63402764481737 ,-147.2174678934328  ,-589.7043653256524  , 84.06574518755284   ,196.56813658924307  ,145.60615902643048   ,-144.20591411187098   ,-288.501066042916   ,-5.919172359647774      ,-142.32750925471657 ,          0.0 ,          0.0 ,-143.96295559076276  ,-288.74406900610114 ,-142.32750925471657 ,-575.0344894095035  , 84.06574518755284   ,191.67817795052682   ,145.60615902643048   ,-1.7954074898787162e-06 ,-1.9444052654834662e-08 ,-1.9024528284970863e-06 ,      0.0 ,      0.0 ,      0.0 ,4.0562134791353866e-07  ,-2.220472846005013e-06  ,      0.0 ,-1.8148514282851166e-06 ,1.418684740748406e-06  ,0.33962220265823817  ,0.11582864954583418     ,-3.202650916573611e-05  ,8.222961933808763e-07   ,3.3609944399785343e-06 ,19.853042079787915     ,0.0 ,8.231312600050423     ,2.1453066008380346      ,        0.0 ,        0.0 , 0.0
 0.0 ,0.0 ,           0.0 ,            0.0 ,            0.0 ,            0.0 ,              0.0 ,                   0.0 , 479.0 ,29.02797 ,-15.86784 ,           0.0 ,           0.0 ,       0.0 ,28.40207       ,-18.70805   ,-0.0181166       ,-0.001661586     ,                 0.0 ,             0.0 ,             0.0 ,                 0.0 ,                 0.0 ,        0.0 ,2.5149890344481083     ,            0.0 ,            0.0 ,            0.0 ,              0.0 ,                   0.0 ,  0.0 ,0.0 , 349.8580607782558   ,1.0                ,0.0 ,-148.23607220305192 ,-289.75223336544786 ,-5.4103578344724905     ,-145.52709285622507 ,          0.0 ,          0.0 ,-148.02894648256336 ,-289.9594396093588  ,-145.52709285622507 ,-583.5154046975989  , 82.67644361431081   ,194.505168232533    ,143.19982175369253   ,-143.3620961995585    ,-284.878276838532   ,-5.4103578344724905     ,-140.65311685273167 ,          0.0 ,          0.0 ,-143.15498995564752  ,-285.0854378564137  ,-140.65311685273167 ,-568.8934898908221  , 82.67644361431081   ,189.63116647958782   ,143.19982175369253   ,-2.569595735309411e-06  ,9.983236325228736e-09   ,-2.165093059026066e-06  ,      0.0 ,      0.0 ,      0.0 ,4.0912384729680445e-07  ,-2.9687361516659708e-06 ,      0.0 ,-2.559612509984085e-06  ,1.8449652241080034e-06 ,0.5046116735225954   ,0.16317526640290722     ,-3.7524001586019885e-05 ,1.0082994612163534e-06  ,1.0085700292003494e-05 ,4.024219884155403      ,0.0 ,26.32128987958995     ,3.927461685601851       ,        0.0 ,        0.0 , 0.0
 0.0 ,0.0 ,           0.0 ,            0.0 ,            0.0 ,            0.0 ,              0.0 ,                   0.0 , 480.0 ,31.11288 ,-15.71555 ,           0.0 ,           0.0 ,       0.0 ,29.91502       ,-18.70706   ,-0.01586078      ,0.0002638951     ,                 0.0 ,             0.0 ,             0.0 ,                 0.0 ,                 0.0 ,        0.0 ,2.0359953354089644     ,            0.0 ,            0.0 ,            0.0 ,              0.0 ,                   0.0 ,  0.0 ,0.0 , 350.781385177812    ,1.0                ,0.0 ,-147.7524368587078  ,-286.9654367980982  ,-5.070022908423356      ,-144.2625306543893  ,          0.0 ,          0.0 ,-147.5672588218713  ,-287.1506148349347  ,-144.2625306543893  ,-578.980351646757   , 81.56180684804238   ,192.9934693035763   ,141.26918618230215   ,-142.85550622365577   ,-282.0685369594705  ,-5.070022908423356      ,-139.36560001933725 ,          0.0 ,          0.0 ,-142.67038085125762  ,-282.25366233186867 ,-139.36560001933725 ,-564.2896432024635  , 81.56180684804238   ,188.09653866852426   ,141.26918618230215   ,-2.8213064494242792e-06 ,3.6314989176605045e-07  ,-1.794319340362792e-06  ,      0.0 ,      0.0 ,      0.0 ,6.856802782737563e-07   ,-3.1438370011243675e-06 ,      0.0 ,-2.458156455517226e-06  ,2.04512750623476e-06   ,0.3898031307591907   ,0.06707606961739278     ,-5.625665570625555e-06  ,8.673716247505174e-08   ,2.7271615829451192e-05 ,10.881347704655116     ,0.0 ,20.755617377237872    ,2.3375543858081635      ,        0.0 ,        0.0 , 0.0
 0.0 ,0.0 ,           0.0 ,            0.0 ,            0.0 ,            0.0 ,              0.0 ,                   0.0 , 481.0 ,9.02695  ,-16.73743 ,           0.0 ,           0.0 ,       0.0 ,18.55275       ,-18.59271   ,-0.02281281      ,0.004144116      ,                 0.0 ,             0.0 ,             0.0 ,                 0.0 ,                 0.0 ,        0.0 ,1.9574115851421228     ,            0.0 ,            0.0 ,            0.0 ,              0.0 ,                   0.0 ,  0.0 ,0.0 , 397.82170617021063  ,1.0                ,0.0 ,-145.5355695821367  ,-309.15638823324093 ,-7.3788273290169695     ,-153.11625924253528 ,          0.0 ,          0.0 ,-145.20030709287647 ,-309.49169867248213 ,-153.11625924253528 ,-607.8082650078939  , 92.65686634145204   ,202.60278833596462  ,160.48638706025184   ,-140.71219058418708   ,-304.3330570264689  ,-7.3788273290169695     ,-148.29288024458566 ,          0.0 ,          0.0 ,-140.37688014494591  ,-304.6682674657101  ,-148.29288024458566 ,-593.3380799052607  , 92.65686634145204   ,197.77936138803406   ,160.48638706025184   ,-5.761919261793185e-07  ,-3.6626497076151097e-06 ,-2.823405135878542e-06  ,      0.0 ,      0.0 ,      0.0 ,-1.73455882281519e-08   ,-4.2214956848486704e-06 ,      0.0 ,-4.238841225126841e-06  ,2.4573248291960186e-06 ,0.487853558729657    ,0.09103971811474751     ,-1.150003708683118e-05  ,-2.37245134771143e-08   ,6.354080790746985e-05  ,6.862914734799401      ,0.0 ,15.436104939713866    ,2.56670433545399        ,        0.0 ,        0.0 , 0.0
 0.0 ,0.0 ,           0.0 ,            0.0 ,            0.0 ,            0.0 ,              0.0 ,                   0.0 , 482.0 ,9.001628 ,-18.43654 ,           0.0 ,           0.0 ,       0.0 ,2.005431       ,-18.63709   ,-0.0196205       ,0.002417909      ,                 0.0 ,             0.0 ,             0.0 ,                 0.0 ,                 0.0 ,        0.0 ,0.48175064012639784    ,            0.0 ,            0.0 ,            0.0 ,              0.0 ,                   0.0 ,  0.0 ,0.0 , 395.0043991853677   ,1.0                ,0.0 ,-160.5738450781596  ,-335.10471888124687 ,-8.31584313486689       ,-166.62076429489468 ,          0.0 ,          0.0 ,-160.17843844203213 ,-335.5000769023917  ,-166.62076429489468 ,-662.2993282543011  , 99.41683175725841   ,220.7664588097884   ,172.1950287483295    ,-161.05319035325124   ,-335.584112771321   ,-8.31584313486689       ,-167.1001581849689  ,          0.0 ,          0.0 ,-160.65783233210635  ,-335.9794226174019  ,-167.1001581849689  ,-663.7375131344772  , 99.41683175725841   ,221.24585269986258   ,172.1950287483295    ,4.268712933304391e-07   ,-3.037617960736346e-06  ,-2.018234087979528e-06  ,      0.0 ,      0.0 ,      0.0 ,6.993680027855746e-07   ,-3.310114911066801e-06  ,      0.0 ,-2.610746908281227e-06  ,2.1417255653188885e-06 ,0.8086010959879308   ,0.2016247346001478      ,-0.011119583345899221   ,-0.000995433365089217   ,0.011607473662937904   ,-2.5030579674987807    ,0.0 ,6.304794540029084     ,2.0247233718824336      ,        0.0 ,        0.0 , 0.0
 0.0 ,0.0 ,           0.0 ,            0.0 ,            0.0 ,            0.0 ,              0.0 ,                   0.0 , 483.0 ,10.65193 ,-18.20019 ,           0.0 ,           0.0 ,       0.0 ,4.475114       ,-18.6477    ,-0.02251486      ,-0.001131359     ,                 0.0 ,             0.0 ,             0.0 ,                 0.0 ,                 0.0 ,        0.0 ,2.86951479258631       ,            0.0 ,            0.0 ,            0.0 ,              0.0 ,                   0.0 ,  0.0 ,0.0 , 399.77194622129446  ,1.0                ,0.0 ,-160.53622843045392 ,-332.3225112744098  ,-8.741489937277343      ,-165.19506220947636 ,          0.0 ,          0.0 ,-160.09208233809483 ,-332.7667008425085  ,-165.19506220947636 ,-658.05380191434    , 98.2566252331309    ,219.3512990496277   ,170.18545627830588   ,-157.61998054184957   ,-329.4063151446089  ,-8.741489937277343      ,-162.27881908632892 ,          0.0 ,          0.0 ,-157.17579097375088  ,-329.8504094781645  ,-162.27881908632892 ,-649.3051195382443  , 98.2566252331309    ,216.4350559264803    ,170.18545627830588   ,-8.214057183836776e-07  ,-1.156364465640071e-05  ,-3.307026597956279e-06  ,      0.0 ,      0.0 ,      0.0 ,-4.1387708093466914e-07 ,-1.1971173113363431e-05 ,      0.0 ,-1.2385052365151946e-05 ,6.805184927732283e-06  ,0.6462233146708738   ,-0.0007884121634454113  ,-0.00112736999189884    ,0.0                     ,0.0022240723941712257  ,7.527011469919983      ,0.0 ,0.0                   ,0.0                     ,        0.0 ,        0.0 , 0.0
 0.0 ,0.0 ,           0.0 ,            0.0 ,            0.0 ,            0.0 ,              0.0 ,                   0.0 , 484.0 ,12.21458 ,-17.5092  ,           0.0 ,           0.0 ,       0.0 ,11.4323        ,-18.65243   ,-0.02386911      ,-0.0004067922    ,                 0.0 ,             0.0 ,             0.0 ,                 0.0 ,                 0.0 ,        0.0 ,3.472867776281502      ,            0.0 ,            0.0 ,            0.0 ,              0.0 ,                   0.0 ,  0.0 ,0.0 , 401.20033309529674  ,1.0                ,0.0 ,-154.66485388415035 ,-318.9724967244408  ,-8.43846439932768       ,-158.68610462867667 ,          0.0 ,          0.0 ,-154.23240672209505 ,-319.40499117327374 ,-158.68610462867667 ,-632.3234552372679  , 94.1044354028723    ,210.77450084134847  ,162.9936631889807    ,-151.15526053858522   ,-315.46285233812273 ,-8.43846439932768       ,-155.17650961064209 ,          0.0 ,          0.0 ,-150.72276608975233  ,-315.89535054093096 ,-155.17650961064209 ,-621.79462248735    , 94.1044354028723    ,207.26490749578335   ,162.9936631889807    ,-2.139405957596921e-06  ,-9.487012248456146e-06  ,-2.7307279835393554e-06 ,      0.0 ,      0.0 ,      0.0 ,7.147002816123099e-09   ,-1.1633565734750937e-05 ,      0.0 ,-1.1626420556940228e-05 ,6.720534371338613e-06  ,0.537389531939717    ,-0.0010249916022331033  ,-2.6699858881158495e-05 ,0.0                     ,0.0010254132551612265  ,14.377955737995293     ,0.0 ,0.0                   ,0.0                     ,        0.0 ,        0.0 , 0.0
 0.0 ,0.0 ,           0.0 ,            0.0 ,            0.0 ,            0.0 ,              0.0 ,                   0.0 , 485.0 ,14.02851 ,-17.19347 ,           0.0 ,           0.0 ,       0.0 ,14.71863       ,-18.66533   ,-0.02593897      ,0.002011129      ,                 0.0 ,             0.0 ,             0.0 ,                 0.0 ,                 0.0 ,        0.0 ,2.5255706794461728     ,            0.0 ,            0.0 ,            0.0 ,              0.0 ,                   0.0 ,  0.0 ,0.0 , 402.029292463609    ,1.0                ,0.0 ,-153.21516408493318 ,-314.2042915479464  ,-8.265687852786472      ,-156.55827933184833 ,          0.0 ,          0.0 ,-152.79170367584828 ,-314.6277519570313  ,-156.55827933184833 ,-623.9777349647279  , 92.37095969138412   ,207.9925625072653   ,159.9912208443825    ,-148.56836837897572   ,-309.5575006583821  ,-8.265687852786472      ,-151.9115335514552  ,          0.0 ,          0.0 ,-148.14495789545512  ,-309.9809587337061  ,-151.9115335514552  ,-610.0374001061807  , 92.37095969138412   ,203.34581672687216   ,159.9912208443825    ,-3.145603976675769e-06  ,-4.403995644273163e-06  ,-2.6808570476732486e-06 ,      0.0 ,      0.0 ,      0.0 ,-9.66963371709401e-07   ,-6.582636473190841e-06  ,      0.0 ,-7.549599074989571e-06  ,3.5818478317202865e-06 ,0.3944582993868567   ,0.2398811432837006      ,-0.00019878419125668104 ,3.378743518985469e-06   ,1.9162804716523896e-05 ,12.867921815323328     ,0.0 ,4.555939398521242     ,2.1892010473941657      ,        0.0 ,        0.0 , 0.0
 0.0 ,0.0 ,           0.0 ,            0.0 ,            0.0 ,            0.0 ,              0.0 ,                   0.0 , 486.0 ,15.88709 ,-16.98408 ,           0.0 ,           0.0 ,       0.0 ,16.93843       ,-18.67793   ,-0.01800259      ,-0.0002209612    ,                 0.0 ,             0.0 ,             0.0 ,                 0.0 ,                 0.0 ,        0.0 ,2.0362425182153325     ,            0.0 ,            0.0 ,            0.0 ,              0.0 ,                   0.0 ,  0.0 ,0.0 , 403.0818573153245   ,1.0                ,0.0 ,-152.07836944832536 ,-309.8419525134441  ,-8.190769089082059      ,-154.54056611918497 ,          0.0 ,          0.0 ,-151.65423515808175 ,-310.2660868036877  ,-154.54056611918497 ,-616.4608880809544  , 90.75340055916222   ,205.48694704760413  ,157.18949922979485   ,-147.4141780082523    ,-305.17781163576467 ,-8.190769089082059      ,-149.8764234293797  ,          0.0 ,          0.0 ,-146.9900924682765   ,-305.6018971757405  ,-149.8764234293797  ,-602.4684112612708  , 90.75340055916222   ,200.8228043577989    ,157.18949922979485   ,-2.3117202743573893e-06 ,-4.3888156917388496e-06 ,-2.968883171728323e-06  ,      0.0 ,      0.0 ,      0.0 ,-8.530434443335194e-07  ,-5.847492814764107e-06  ,      0.0 ,-6.700535881342915e-06  ,3.1926450036563498e-06 ,0.37733122986475787  ,0.23424413402533298     ,-0.0001952932126055325  ,3.2992045998573214e-06  ,8.655143383120875e-06  ,15.130312527911547     ,0.0 ,4.448688139780971     ,2.137665118701885       ,        0.0 ,        0.0 , 0.0
 0.0 ,0.0 ,           0.0 ,            0.0 ,            0.0 ,            0.0 ,              0.0 ,                   0.0 , 487.0 ,17.7367  ,-16.81923 ,           0.0 ,           0.0 ,       0.0 ,18.68875       ,-18.6881    ,-0.01662269      ,-0.0002289603    ,                 0.0 ,             0.0 ,             0.0 ,                 0.0 ,                 0.0 ,        0.0 ,2.9809433784258994     ,            0.0 ,            0.0 ,            0.0 ,              0.0 ,                   0.0 ,  0.0 ,0.0 , 404.0705237744845   ,1.0                ,0.0 ,-151.85815825001393 ,-306.68498592610456 ,-7.864176713345861      ,-153.24528513684257 ,          0.0 ,          0.0 ,-151.4594505859157  ,-307.08364437611    ,-153.24528513684257 ,-611.7883800988683  , 89.3387799328136    ,203.9294927310687   ,154.7392796879884    ,-147.11819229039895   ,-301.94501996648955 ,-7.864176713345861      ,-148.50531951107536 ,          0.0 ,          0.0 ,-146.71953384039358  ,-302.34372763058775 ,-148.50531951107536 ,-597.5685317679638  , 89.3387799328136    ,199.18947789120867   ,154.7392796879884    ,-4.001213941465982e-06  ,-1.96962975318254e-06   ,-1.8692584302241074e-06 ,      0.0 ,      0.0 ,      0.0 ,-1.2827767456805885e-06 ,-4.688066911187814e-06  ,      0.0 ,-5.9708439559642834e-06 ,2.575517584835838e-06  ,0.37264196697285534  ,0.20530168966702614     ,-0.000213603364921295   ,9.112900501318988e-06   ,1.244769784409431e-05  ,15.514711827147885     ,0.0 ,5.280420448108692     ,2.2179601824060553      ,        0.0 ,        0.0 , 0.0
 0.0 ,0.0 ,           0.0 ,            0.0 ,            0.0 ,            0.0 ,              0.0 ,                   0.0 , 488.0 ,19.55379 ,-16.67232 ,           0.0 ,           0.0 ,       0.0 ,20.23302       ,-18.69563   ,-0.01492351      ,-0.0007668995    ,                 0.0 ,             0.0 ,             0.0 ,                 0.0 ,                 0.0 ,        0.0 ,2.459328825113421      ,            0.0 ,            0.0 ,            0.0 ,              0.0 ,                   0.0 ,  0.0 ,0.0 , 408.864380363221    ,1.0                ,0.0 ,-151.22643167229788 ,-304.24138688702794 ,-7.518913354714206      ,-152.13008499269299 ,          0.0 ,          0.0 ,-150.8577911747225  ,-304.6099764449057  ,-152.13008499269299 ,-607.5978526123212  , 88.40457793587518   ,202.53265087077372  ,153.12123245854647   ,-146.3986497741877    ,-299.4136049889177  ,-7.518913354714206      ,-147.302352365342   ,          0.0 ,          0.0 ,-146.03005854737154  ,-299.7822438175548  ,-147.302352365342   ,-593.1146054595091  , 88.40457793587518   ,197.70486897266352   ,153.12123245854647   ,-3.256864450740623e-06  ,-4.2897770917477706e-07 ,-2.1918452822033845e-06 ,      0.0 ,      0.0 ,      0.0 ,9.270469711431502e-08   ,-3.778546807758956e-06  ,      0.0 ,-3.685842406269196e-06  ,2.2142390353403554e-06 ,0.374310170410754    ,0.1584862935993662      ,-6.61920482999373e-05   ,-2.276509889516579e-08  ,1.962768788728438e-05  ,15.144593641688052     ,0.0 ,7.1859409911176035    ,2.3214819969307654      ,        0.0 ,        0.0 , 0.0
 0.0 ,0.0 ,           0.0 ,            0.0 ,            0.0 ,            0.0 ,              0.0 ,                   0.0 , 489.0 ,10.47316 ,-16.73794 ,           0.0 ,           0.0 ,       0.0 ,18.7974        ,-18.61768   ,-0.009532364     ,0.00145201       ,                 0.0 ,             0.0 ,             0.0 ,                 0.0 ,                 0.0 ,        0.0 ,3.1531497795397825     ,            0.0 ,            0.0 ,            0.0 ,              0.0 ,                   0.0 ,  0.0 ,0.0 , 403.0089806011657   ,1.0                ,0.0 ,-146.35765242502566 ,-307.93896203339375 ,-7.80539211475552       ,-152.7976495162365  ,          0.0 ,          0.0 ,-145.98120727105487 ,-308.3154071873646  ,-152.7976495162365  ,-607.094263974656   , 91.82101068502212   ,202.36477497920777  ,159.03863234420677   ,-141.50901496862474   ,-303.0903855399601  ,-7.80539211475552       ,-147.94897302280285 ,          0.0 ,          0.0 ,-141.13260795362652  ,-303.46680786993625 ,-147.94897302280285 ,-592.5483735313876  , 91.82101068502212   ,197.5161375228068    ,159.03863234420677   ,-1.160567759562065e-06  ,-2.6151427777324906e-06 ,-2.8559007948303373e-06 ,      0.0 ,      0.0 ,      0.0 ,5.06085746333355e-08    ,-3.826318843752851e-06  ,      0.0 ,-3.775710347193582e-06  ,2.301793907970395e-06  ,0.41087901798679327  ,0.06332706886691217     ,-4.057735283746302e-06  ,-7.715929874303647e-08  ,6.937034633407682e-05  ,10.875237923730602     ,0.0 ,11.312507455707294    ,1.8804191612741417      ,        0.0 ,        0.0 , 0.0
 0.0 ,0.0 ,           0.0 ,            0.0 ,            0.0 ,            0.0 ,              0.0 ,                   0.0 , 490.0 ,21.31059 ,-16.5292  ,           0.0 ,           0.0 ,       0.0 ,21.71687       ,-18.70089   ,-0.01336719      ,-0.0007229264    ,                 0.0 ,             0.0 ,             0.0 ,                 0.0 ,                 0.0 ,        0.0 ,2.992310900051775      ,            0.0 ,            0.0 ,            0.0 ,              0.0 ,                   0.0 ,  0.0 ,0.0 , 409.36064924797256  ,1.0                ,0.0 ,-150.56210023575613 ,-301.46621959145665 ,-7.172614316210859      ,-150.84364970331023 ,          0.0 ,          0.0 ,-150.22162574466734 ,-301.8066940825455  ,-150.84364970331023 ,-602.8719695305231  , 87.33876613742065   ,200.9573242384679   ,151.27519329914395   ,-145.72475040504827   ,-296.6288697607488  ,-7.172614316210859      ,-146.0062998726023  ,          0.0 ,          0.0 ,-145.38422629841443  ,-296.9693442518376  ,-146.0062998726023  ,-588.3599176224286  , 87.33876613742065   ,196.11997440776      ,151.27519329914395   ,-2.082112736322969e-06  ,-6.448396396041666e-07  ,-3.127911967062314e-06  ,      0.0 ,      0.0 ,      0.0 ,3.583813946888777e-07   ,-3.0853337113365862e-06 ,      0.0 ,-2.7269525247737706e-06 ,1.9177513369439866e-06 ,0.3684660703146204   ,0.16276724281349436     ,-6.208999333700049e-05  ,-2.3379535884372756e-08 ,4.173090741378059e-06  ,16.673093167784824     ,0.0 ,7.37989173859882      ,2.3841395067997526      ,        0.0 ,        0.0 , 0.0
 0.0 ,0.0 ,           0.0 ,            0.0 ,            0.0 ,            0.0 ,              0.0 ,                   0.0 , 491.0 ,22.94648 ,-16.39378 ,           0.0 ,           0.0 ,       0.0 ,23.10486       ,-18.70427   ,-0.01151978      ,-0.0003149751    ,                 0.0 ,             0.0 ,             0.0 ,                 0.0 ,                 0.0 ,        0.0 ,2.1708806462938925     ,            0.0 ,            0.0 ,            0.0 ,              0.0 ,                   0.0 ,  0.0 ,0.0 , 413.19261557610275  ,1.0                ,0.0 ,-149.85405934980395 ,-298.8022676486512  ,-6.564845393363986      ,-149.6402304853481  ,          0.0 ,          0.0 ,-149.56502568709865 ,-299.0913013113565  ,-149.6402304853481  ,-598.2965574838032  , 86.30754715767509   ,199.43216773726235  ,149.48903972916457   ,-145.0101557456425    ,-293.9584074278831  ,-6.564845393363986      ,-144.79637026458008 ,          0.0 ,          0.0 ,-144.72115457770792  ,-294.24739770719503 ,-144.79637026458008 ,-583.7649334381057  , 86.30754715767509   ,194.58830751649435   ,149.48903972916457   ,-8.947811473424586e-07  ,-3.6246333487661013e-09 ,-1.745965218452339e-06  ,      0.0 ,      0.0 ,      0.0 ,5.312423280860263e-07   ,-1.4296480154601808e-06 ,      0.0 ,-8.984059044622191e-07  ,1.0141681619294029e-06 ,0.23108902851228666  ,2.4403211462245463e-05  ,-3.608066140234815e-05  ,0.0                     ,5.121594333001548e-05  ,24.392321265925496     ,0.0 ,0.0                   ,0.0                     ,        0.0 ,        0.0 , 0.0
 0.0 ,0.0 ,           0.0 ,            0.0 ,            0.0 ,            0.0 ,              0.0 ,                   0.0 , 492.0 ,24.32701 ,-16.29223 ,           0.0 ,           0.0 ,       0.0 ,24.13952       ,-18.70618   ,-0.008614341     ,0.002723933      ,                 0.0 ,             0.0 ,             0.0 ,                 0.0 ,                 0.0 ,        0.0 ,2.3810782491720635     ,            0.0 ,            0.0 ,            0.0 ,              0.0 ,                   0.0 ,  0.0 ,0.0 , 413.98566040946315  ,1.0                ,0.0 ,-150.1756179198633  ,-297.4930550061962  ,-6.162219059983791      ,-149.13810027289753 ,          0.0 ,          0.0 ,-149.91802829616552 ,-297.7505780307436  ,-149.13810027289753 ,-596.8067414346154  , 85.5773030576139    ,198.93555773298567  ,148.22423506845342   ,-145.28358639741296   ,-292.6010251202539  ,-6.162219059983791      ,-144.2461021512969  ,          0.0 ,          0.0 ,-145.02603017456488  ,-292.85854650829333 ,-144.2461021512969  ,-582.1307136689637  , 85.5773030576139    ,194.043559611385     ,148.22423506845342   ,-1.9954977757837984e-06 ,1.939133734214697e-07   ,-1.6252026104605e-06    ,      0.0 ,      0.0 ,      0.0 ,5.626974764761572e-07   ,-2.3642820940553413e-06 ,      0.0 ,-1.8015846815129651e-06 ,1.5567973166339136e-06 ,0.3142262475157572   ,0.08930306431571716     ,-3.719074124922656e-05  ,1.998404700794828e-06   ,6.000355115318304e-06  ,18.898784410339907     ,0.0 ,6.566946670982632     ,1.6835318196117601      ,        0.0 ,        0.0 , 0.0
 0.0 ,0.0 ,           0.0 ,            0.0 ,            0.0 ,            0.0 ,              0.0 ,                   0.0 , 493.0 ,-0.0     ,-6.0      ,           0.0 ,           0.0 ,       0.0 ,119.1723       ,-17.91723   ,75.11201         ,3.395979e-05     ,                 0.0 ,             0.0 ,             0.0 ,                 0.0 ,                 0.0 ,        0.0 ,0.0                    ,            0.0 ,            0.0 ,            0.0 ,              0.0 ,                   0.0 ,  0.0 ,0.0 ,  63.0526890076239   ,-19.13493555082592 ,0.0 ,-150.20647096360102 ,-301.8961131095082  ,-0.9660051654729485     ,-150.84806452398357 ,          0.0 ,          0.0 ,-149.69559048054901 ,-302.40699445125637 ,-150.84806452398357 ,-602.9506491411203  , 87.8937275420447    ,200.98354996185654  ,152.23640201469016   ,-195.62452991762592   ,-347.3141746533202  ,-0.9660051654729485     ,-196.26612436533654 ,          0.0 ,          0.0 ,-195.1136501735405   ,-347.8250543585413  ,-196.26612436533654 ,-739.204823850142   , 87.8937275420447    ,246.4016094143192    ,152.23640201469016   ,-2.1993138581648397e-07 ,-1.3757231431372854e-05 ,-8.025748206091332e-07  ,      0.0 ,      0.0 ,      0.0 ,9.084547298373262e-07   ,-1.488561759416882e-05  ,      0.0 ,-1.397716300294931e-05  ,9.053272662137981e-06  ,0.5732550085034905   ,0.2946648442233249      ,-0.005997995722761869   ,-0.0033391805167947105  ,0.006388475128528773   ,-3.1676430553497203    ,0.0 ,-3.973368943820623    ,-23.19387943808092      ,        0.0 ,        0.0 , 0.0
 0.0 ,0.0 ,           0.0 ,            0.0 ,            0.0 ,            0.0 ,              0.0 ,                   0.0 , 494.0 ,-0.0     ,-7.666667 ,           0.0 ,           0.0 ,       0.0 ,102.456        ,-17.91227   ,100.9406         ,-9.411879e-05    ,                 0.0 ,             0.0 ,             0.0 ,                 0.0 ,                 0.0 ,        0.0 ,0.0                    ,            0.0 ,            0.0 ,            0.0 ,              0.0 ,                   0.0 ,  0.0 ,0.0 ,  63.0526890076239   ,-19.13493555082592 ,0.0 ,-150.20647096360102 ,-301.8961131095082  ,-0.9660051654729485     ,-150.84806452398357 ,          0.0 ,          0.0 ,-149.69559048054901 ,-302.40699445125637 ,-150.84806452398357 ,-602.9506491411203  , 87.8937275420447    ,200.98354996185654  ,152.23640201469016   ,-195.62452991762592   ,-347.3141746533202  ,-0.9660051654729485     ,-196.26612436533654 ,          0.0 ,          0.0 ,-195.1136501735405   ,-347.8250543585413  ,-196.26612436533654 ,-739.204823850142   , 87.8937275420447    ,246.4016094143192    ,152.23640201469016   ,-2.1993138581648397e-07 ,-1.3757231431372854e-05 ,-8.025748206091332e-07  ,      0.0 ,      0.0 ,      0.0 ,9.084547298373262e-07   ,-1.488561759416882e-05  ,      0.0 ,-1.397716300294931e-05  ,9.053272662137981e-06  ,0.5732550085034905   ,0.2946648442233249      ,-0.005997995722761869   ,-0.0033391805167947105  ,0.006388475128528773   ,-3.1676430553497203    ,0.0 ,-3.973368943820623    ,-23.19387943808092      ,        0.0 ,        0.0 , 0.0
 0.0 ,0.0 ,           0.0 ,            0.0 ,            0.0 ,            0.0 ,              0.0 ,                   0.0 , 495.0 ,-0.0     ,-9.333333 ,           0.0 ,           0.0 ,       0.0 ,85.648         ,-17.89813   ,127.3244         ,0.0002281937     ,                 0.0 ,             0.0 ,             0.0 ,                 0.0 ,                 0.0 ,        0.0 ,0.0                    ,            0.0 ,            0.0 ,            0.0 ,              0.0 ,                   0.0 ,  0.0 ,0.0 ,  63.0526890076239   ,-19.13493555082592 ,0.0 ,-150.20647096360102 ,-301.8961131095082  ,-0.9660051654729485     ,-150.84806452398357 ,          0.0 ,          0.0 ,-149.69559048054901 ,-302.40699445125637 ,-150.84806452398357 ,-602.9506491411203  , 87.8937275420447    ,200.98354996185654  ,152.23640201469016   ,-195.62452991762592   ,-347.3141746533202  ,-0.9660051654729485     ,-196.26612436533654 ,          0.0 ,          0.0 ,-195.1136501735405   ,-347.8250543585413  ,-196.26612436533654 ,-739.204823850142   , 87.8937275420447    ,246.4016094143192    ,152.23640201469016   ,-2.1993138581648397e-07 ,-1.3757231431372854e-05 ,-8.025748206091332e-07  ,      0.0 ,      0.0 ,      0.0 ,9.084547298373262e-07   ,-1.488561759416882e-05  ,      0.0 ,-1.397716300294931e-05  ,9.053272662137981e-06  ,0.5732550085034905   ,0.2946648442233249      ,-0.005997995722761869   ,-0.0033391805167947105  ,0.006388475128528773   ,-3.1676430553497203    ,0.0 ,-3.973368943820623    ,-23.19387943808092      ,        0.0 ,        0.0 , 0.0
 0.0 ,0.0 ,           0.0 ,            0.0 ,            0.0 ,            0.0 ,              0.0 ,                   0.0 , 496.0 ,125.0    ,-3.5      ,           0.0 ,           0.0 ,       0.0 ,0.0            ,-3.5        ,-44.20166        ,-2.927799e-05    ,                 0.0 ,             0.0 ,             0.0 ,                 0.0 ,                 0.0 ,        0.0 ,0.0                    ,            0.0 ,            0.0 ,            0.0 ,              0.0 ,                   0.0 ,  0.0 ,0.0 ,  63.0526890076239   ,-19.13493555082592 ,0.0 ,-150.20647096360102 ,-301.8961131095082  ,-0.9660051654729485     ,-150.84806452398357 ,          0.0 ,          0.0 ,-149.69559048054901 ,-302.40699445125637 ,-150.84806452398357 ,-602.9506491411203  , 87.8937275420447    ,200.98354996185654  ,152.23640201469016   ,-195.62452991762592   ,-347.3141746533202  ,-0.9660051654729485     ,-196.26612436533654 ,          0.0 ,          0.0 ,-195.1136501735405   ,-347.8250543585413  ,-196.26612436533654 ,-739.204823850142   , 87.8937275420447    ,246.4016094143192    ,152.23640201469016   ,-2.1993138581648397e-07 ,-1.3757231431372854e-05 ,-8.025748206091332e-07  ,      0.0 ,      0.0 ,      0.0 ,9.084547298373262e-07   ,-1.488561759416882e-05  ,      0.0 ,-1.397716300294931e-05  ,9.053272662137981e-06  ,0.5732550085034905   ,0.2946648442233249      ,-0.005997995722761869   ,-0.0033391805167947105  ,0.006388475128528773   ,-3.1676430553497203    ,0.0 ,-3.973368943820623    ,-23.19387943808092      ,        0.0 ,        0.0 , 0.0
 0.0 ,0.0 ,           0.0 ,            0.0 ,            0.0 ,            0.0 ,              0.0 ,                   0.0 , 497.0 ,125.0    ,-2.0      ,           0.0 ,           0.0 ,       0.0 ,0.0            ,-2.0        ,-22.79336        ,0.0005256985     ,                 0.0 ,             0.0 ,             0.0 ,                 0.0 ,                 0.0 ,        0.0 ,0.0                    ,            0.0 ,            0.0 ,            0.0 ,              0.0 ,                   0.0 ,  0.0 ,0.0 ,  63.0526890076239   ,-19.13493555082592 ,0.0 ,-150.20647096360102 ,-301.8961131095082  ,-0.9660051654729485     ,-150.84806452398357 ,          0.0 ,          0.0 ,-149.69559048054901 ,-302.40699445125637 ,-150.84806452398357 ,-602.9506491411203  , 87.8937275420447    ,200.98354996185654  ,152.23640201469016   ,-195.62452991762592   ,-347.3141746533202  ,-0.9660051654729485     ,-196.26612436533654 ,          0.0 ,          0.0 ,-195.1136501735405   ,-347.8250543585413  ,-196.26612436533654 ,-739.204823850142   , 87.8937275420447    ,246.4016094143192    ,152.23640201469016   ,-2.1993138581648397e-07 ,-1.3757231431372854e-05 ,-8.025748206091332e-07  ,      0.0 ,      0.0 ,      0.0 ,9.084547298373262e-07   ,-1.488561759416882e-05  ,      0.0 ,-1.397716300294931e-05  ,9.053272662137981e-06  ,0.5732550085034905   ,0.2946648442233249      ,-0.005997995722761869   ,-0.0033391805167947105  ,0.006388475128528773   ,-3.1676430553497203    ,0.0 ,-3.973368943820623    ,-23.19387943808092      ,        0.0 ,        0.0 , 0.0
 0.0 ,0.0 ,           0.0 ,            0.0 ,            0.0 ,            0.0 ,              0.0 ,                   0.0 , 498.0 ,125.0    ,-0.5      ,           0.0 ,           0.0 ,       0.0 ,0.0            ,-0.5        ,-7.122036        ,-0.001170445     ,                 0.0 ,             0.0 ,             0.0 ,                 0.0 ,                 0.0 ,        0.0 ,0.0                    ,            0.0 ,            0.0 ,            0.0 ,              0.0 ,                   0.0 ,  0.0 ,0.0 ,  63.0526890076239   ,-19.13493555082592 ,0.0 ,-150.20647096360102 ,-301.8961131095082  ,-0.9660051654729485     ,-150.84806452398357 ,          0.0 ,          0.0 ,-149.69559048054901 ,-302.40699445125637 ,-150.84806452398357 ,-602.9506491411203  , 87.8937275420447    ,200.98354996185654  ,152.23640201469016   ,-195.62452991762592   ,-347.3141746533202  ,-0.9660051654729485     ,-196.26612436533654 ,          0.0 ,          0.0 ,-195.1136501735405   ,-347.8250543585413  ,-196.26612436533654 ,-739.204823850142   , 87.8937275420447    ,246.4016094143192    ,152.23640201469016   ,-2.1993138581648397e-07 ,-1.3757231431372854e-05 ,-8.025748206091332e-07  ,      0.0 ,      0.0 ,      0.0 ,9.084547298373262e-07   ,-1.488561759416882e-05  ,      0.0 ,-1.397716300294931e-05  ,9.053272662137981e-06  ,0.5732550085034905   ,0.2946648442233249      ,-0.005997995722761869   ,-0.0033391805167947105  ,0.006388475128528773   ,-3.1676430553497203    ,0.0 ,-3.973368943820623    ,-23.19387943808092      ,        0.0 ,        0.0 , 0.0
 0.0 ,0.0 ,           0.0 ,            0.0 ,            0.0 ,            0.0 ,              0.0 ,                   0.0 , 499.0 ,123.0469 ,-0.507812 ,           0.0 ,           0.0 ,       0.0 ,11.92426       ,-1.700239   ,0.00421201       ,8.951292e-05     ,                 0.0 ,             0.0 ,             0.0 ,                 0.0 ,                 0.0 ,        0.0 ,2.9999999999999996     ,            0.0 ,            0.0 ,            0.0 ,              0.0 ,                   0.0 ,  0.0 ,0.0 ,1131.9132117444676   ,1.0                ,0.0 ,-5.121870916703088  ,-13.45263007966404  ,0.4712225510898766      ,-6.5396624224876625 ,          0.0 ,          0.0 ,-5.092852508422819  ,-13.481647997211422 ,-6.5396624224876625 ,-25.11416341885479  ,  4.494680354774909  ,  8.371388686654692 ,  7.7850144853671654 ,-0.7833936494703755   ,-9.1141504437178    ,0.4712225510898766      ,-2.201185427860971  ,          0.0 ,          0.0 ,-0.75437525818029    ,-9.143171220711595  ,-2.201185427860971  ,-12.098729739176017 ,  4.494680354774909  ,  4.032909088970016  ,  7.7850144853671654 ,2.1046178668637114e-05  ,-1.6841185497142508e-05 ,-7.15293465193233e-07   ,      0.0 ,      0.0 ,      0.0 ,2.109861092433248e-05   ,-1.6893619055567353e-05 ,      0.0 ,4.204989456524842e-06   ,1.91217302967617e-05   ,0.4349918459757548   ,-0.0786002608018494     ,-0.08133316837659092    ,0.0                     ,0.12183303235570975    ,13.307841327311547     ,0.0 ,0.0                   ,0.0                     ,        0.0 ,        0.0 , 0.0
 0.0 ,0.0 ,           0.0 ,            0.0 ,            0.0 ,            0.0 ,              0.0 ,                   0.0 , 500.0 ,121.0938 ,-0.515625 ,           0.0 ,           0.0 ,       0.0 ,26.73262       ,-3.188887   ,0.005006977      ,0.0009209224     ,                 0.0 ,             0.0 ,             0.0 ,                 0.0 ,                 0.0 ,        0.0 ,3.1943746774373016     ,            0.0 ,            0.0 ,            0.0 ,              0.0 ,                   0.0 ,  0.0 ,0.0 ,1180.6709721576854   ,1.0                ,0.0 ,-6.828310707449038  ,-14.206159544197765 ,0.024343788557203344    ,-7.1206797287569135 ,          0.0 ,          0.0 ,-6.781691198537018  ,-14.252777243018421 ,-7.1206797287569135 ,-28.155147632201896 ,  4.233789196491684  ,  9.385050641383499 ,  7.3331380448578996 ,-1.9356305823777482   ,-9.313479700910696  ,0.024343788557203344    ,-2.227999828034945  ,          0.0 ,          0.0 ,-1.889013259269386   ,-9.360099209822716  ,-2.227999828034945  ,-13.477110316887098 ,  4.233789196491684  ,  4.492370898891914  ,  7.3331380448578996 ,1.976401016439725e-05   ,-1.3115899831474576e-05 ,-3.5828421924403517e-06 ,      0.0 ,      0.0 ,      0.0 ,2.0194708741794525e-05  ,-1.3546598004416794e-05 ,      0.0 ,6.648106272203407e-06   ,1.708823433434999e-05  ,0.17851351295163653  ,0.07522732237488407     ,-0.0019247271112236158  ,-0.00034988907011405506 ,0.0038561692835859043  ,10.986699189191803     ,0.0 ,13.812860491641763    ,2.3149879227296917      ,        0.0 ,        0.0 , 0.0
 0.0 ,0.0 ,           0.0 ,            0.0 ,            0.0 ,            0.0 ,              0.0 ,                   0.0 , 501.0 ,119.1406 ,-0.523438 ,           0.0 ,           0.0 ,       0.0 ,41.28638       ,-4.652075   ,0.002394973      ,-0.001278325     ,                 0.0 ,             0.0 ,             0.0 ,                 0.0 ,                 0.0 ,        0.0 ,1.8584177545804954     ,            0.0 ,            0.0 ,            0.0 ,              0.0 ,                   0.0 ,  0.0 ,0.0 ,1248.104734952516    ,1.0                ,0.0 ,-8.376586350329035  ,-14.527532886974004 ,0.1755138037878629      ,-7.488581272284931  ,          0.0 ,          0.0 ,-8.247320354489453  ,-14.656797478288041 ,-7.488581272284931  ,-30.392697275203815 ,  3.9649715170254143 , 10.13089967789159  ,  6.867531836416726  ,-3.4273687271206907   ,-9.578316207022281  ,0.1755138037878629      ,-2.5393645662884086 ,          0.0 ,          0.0 ,-3.2981036996403446  ,-9.707581138012358  ,-2.5393645662884086 ,-15.54504974455934  ,  3.9649715170254143 ,  5.181683409003563  ,  6.867531836416726  ,1.1976523039290395e-05  ,-3.5143503563476593e-06 ,1.2908713389464712e-06  ,      0.0 ,      0.0 ,      0.0 ,1.2016885288084161e-05  ,-3.5547097818209653e-06 ,      0.0 ,8.462173290907162e-06   ,8.161587523395498e-06  ,0.13983386980673804  ,0.13845037637950064     ,-0.001637095545064669   ,-0.0005721807378691017  ,0.0                    ,0.0017606327419037655  ,0.0 ,37.97551893683476     ,4.949216481857928       ,        0.0 ,        0.0 , 0.0
 0.0 ,0.0 ,           0.0 ,            0.0 ,            0.0 ,            0.0 ,              0.0 ,                   0.0 , 502.0 ,117.1875 ,-0.53125  ,           0.0 ,           0.0 ,       0.0 ,55.97813       ,-6.129063   ,0.0002379746     ,-5.188263e-05    ,                 0.0 ,             0.0 ,             0.0 ,                 0.0 ,                 0.0 ,        0.0 ,0.9760953731253841     ,            0.0 ,            0.0 ,            0.0 ,              0.0 ,                   0.0 ,  0.0 ,0.0 ,1144.3569627528188   ,1.0                ,0.0 ,-8.898024575850778  ,-14.507562149371088 ,0.33520067078035687     ,-7.588378482654188  ,          0.0 ,          0.0 ,-8.770782814927419  ,-14.634802916353419 ,-7.588378482654188  ,-30.993963423533856 ,  3.8097808341858297 , 10.331320771760415 ,  6.598734607139993  ,-3.917610550878613    ,-9.527147627428409  ,0.33520067078035687     ,-2.6079640486744533 ,          0.0 ,          0.0 ,-3.7903685264881966  ,-9.65438938835177   ,-2.6079640486744533 ,-16.052722635989042 ,  3.8097808341858297 ,  5.350906746788249  ,  6.598734607139993  ,8.394943642460285e-06   ,-2.8992226311541873e-06 ,-6.969626771873319e-07  ,      0.0 ,      0.0 ,      0.0 ,8.426208859451842e-06   ,-2.9304859138006543e-06 ,      0.0 ,5.4957246939708135e-06  ,5.911561423813382e-06  ,0.10118175499807391  ,0.06980590640050002     ,-0.0004384350994609514  ,-2.8202412309090765e-05 ,8.99828586759489e-05   ,16.290441680892027     ,0.0 ,41.958162862632896    ,3.7858263875184264      ,        0.0 ,        0.0 , 0.0
 0.0 ,0.0 ,           0.0 ,            0.0 ,            0.0 ,            0.0 ,              0.0 ,                   0.0 , 503.0 ,115.2344 ,-0.539062 ,           0.0 ,           0.0 ,       0.0 ,70.855         ,-7.624563   ,0.000365351      ,0.000316229      ,                 0.0 ,             0.0 ,             0.0 ,                 0.0 ,                 0.0 ,        0.0 ,0.7362806909334139     ,            0.0 ,            0.0 ,            0.0 ,              0.0 ,                   0.0 ,  0.0 ,0.0 ,1150.2847731115503   ,1.0                ,0.0 ,-8.662296643334978  ,-14.66439201477451  ,-0.13002464463337082    ,-7.607421498600543  ,          0.0 ,          0.0 ,-8.638920873614515  ,-14.687767510692177 ,-7.607421498600543  ,-30.934107850426873 ,  3.8527651979084228 , 10.31136986970148  ,  6.6731843712249646 ,-3.6747334323333267   ,-9.676825642594713  ,-0.13002464463337082    ,-2.619856315358839  ,          0.0 ,          0.0 ,-3.651357331936283   ,-9.700201412315174  ,-2.619856315358839  ,-15.97141526917968  ,  3.8527651979084228 ,  5.3238043189300654 ,  6.6731843712249646 ,5.584837242547267e-06   ,-2.112079762421386e-06  ,-4.855329467315869e-08  ,      0.0 ,      0.0 ,      0.0 ,5.5888449815844665e-06  ,-2.1160870389806885e-06 ,      0.0 ,3.472757206323087e-06   ,3.99064609355435e-06   ,0.14502929675708956  ,0.07022272496189755     ,-0.0002513720752470925  ,-3.4645891563387805e-05 ,0.0                    ,0.0002559837430534637  ,0.0 ,71.5836793927649      ,4.987565088293518       ,        0.0 ,        0.0 , 0.0
 0.0 ,0.0 ,           0.0 ,            0.0 ,            0.0 ,            0.0 ,              0.0 ,                   0.0 , 504.0 ,113.2813 ,-0.546875 ,           0.0 ,           0.0 ,       0.0 ,86.53219       ,-9.200094   ,5.191105e-05     ,3.378146e-05     ,                 0.0 ,             0.0 ,             0.0 ,                 0.0 ,                 0.0 ,        0.0 ,1.4009582463164885     ,            0.0 ,            0.0 ,            0.0 ,              0.0 ,                   0.0 ,  0.0 ,0.0 ,1153.392233232564    ,1.0                ,0.0 ,-8.607364660449063  ,-14.867961383000278 ,0.07990819532125167     ,-7.679564036876509  ,          0.0 ,          0.0 ,-8.604214197286943  ,-14.871109364675537 ,-7.679564036876509  ,-31.154886609110143 ,  3.9231269039558487 , 10.384962367991522 ,  6.795055012286483  ,-3.6184696764066557   ,-9.879064864878156  ,0.07990819532125167     ,-2.6906691206270783 ,          0.0 ,          0.0 ,-3.615321496785626   ,-9.882213062805718  ,-2.6906691206270783 ,-16.188205698020766 ,  3.9231269039558487 ,  5.396069321085108  ,  6.795055012286483  ,4.7268867445789654e-06  ,-1.2129579923544604e-06 ,2.8766048616183623e-06  ,      0.0 ,      0.0 ,      0.0 ,6.012974601659854e-06   ,-2.4990456659513494e-06 ,      0.0 ,3.513928259625316e-06   ,4.430003315536615e-06  ,0.1472921946804127   ,0.06589117644151209     ,-0.00023823852544627226 ,-3.2122540119784186e-05 ,0.0                    ,0.00024106104810160697 ,0.0 ,77.57994850160787     ,4.988894179523692       ,        0.0 ,        0.0 , 0.0
 0.0 ,0.0 ,           0.0 ,            0.0 ,            0.0 ,            0.0 ,              0.0 ,                   0.0 , 505.0 ,111.3281 ,-0.554688 ,           0.0 ,           0.0 ,       0.0 ,102.4718       ,-10.80186   ,-0.000141066     ,-5.184883e-05    ,                 0.0 ,             0.0 ,             0.0 ,                 0.0 ,                 0.0 ,        0.0 ,1.0101532950149914     ,            0.0 ,            0.0 ,            0.0 ,              0.0 ,                   0.0 ,  0.0 ,0.0 ,1155.4119054710882   ,1.0                ,0.0 ,-8.802535697730487  ,-14.949551126272924 ,0.10601653353387416     ,-7.752198645187718  ,          0.0 ,          0.0 ,-8.800073571422105  ,-14.95201543879709  ,-7.752198645187718  ,-31.504286245996557 ,  3.909283584711806  , 10.501429774529509 ,  6.77107850917597   ,-3.808558755809648    ,-9.955575593762445  ,0.10601653353387416     ,-2.7582192019034264 ,          0.0 ,          0.0 ,-3.8060961345779134  ,-9.958037720070825  ,-2.7582192019034264 ,-16.52235311292858  ,  3.909283584711806  ,  5.507450387621632  ,  6.77107850917597   ,6.296433779463342e-06   ,-2.1215749953012767e-06 ,5.698275310536776e-07   ,      0.0 ,      0.0 ,      0.0 ,6.310696852688851e-06   ,-2.1358382330338657e-06 ,      0.0 ,4.17485839646041e-06    ,4.400153532822234e-06  ,0.1270553987386651   ,0.03644109626279393     ,-6.719325012714228e-05  ,-6.766663411670437e-06  ,1.1092000329537333e-05 ,31.694182586572843     ,0.0 ,70.67042425473733     ,3.585959340599681       ,        0.0 ,        0.0 , 0.0
 0.0 ,0.0 ,           0.0 ,            0.0 ,            0.0 ,            0.0 ,              0.0 ,                   0.0 , 506.0 ,109.375  ,-0.5625   ,           0.0 ,           0.0 ,       0.0 ,117.9841       ,-12.36091   ,-0.0002169788    ,2.699986e-05     ,                 0.0 ,             0.0 ,             0.0 ,                 0.0 ,                 0.0 ,        0.0 ,1.5592192954490336     ,            0.0 ,            0.0 ,            0.0 ,              0.0 ,                   0.0 ,  0.0 ,0.0 ,1157.0147527849695   ,1.0                ,0.0 ,-8.835303894560699  ,-15.125805583466356 ,0.051469779748109346    ,-7.815451634347605  ,          0.0 ,          0.0 ,-8.834739679011705  ,-15.126376111224834 ,-7.815451634347605  ,-31.776563241859943 ,  3.969481407917188  , 10.592189261530802 ,  6.8753429008564435 ,-3.8399703445199966   ,-10.130472304190555 ,0.051469779748109346    ,-2.8201165610262917 ,          0.0 ,          0.0 ,-3.839404209743442   ,-10.131038723643073 ,-2.8201165610262917 ,-16.79055930872358  ,  3.969481407917188  ,  5.596854002520262  ,  6.8753429008564435 ,9.744705565473316e-06   ,-2.4358288790594133e-06 ,3.610730014003945e-07   ,      0.0 ,      0.0 ,      0.0 ,9.747532265710807e-06   ,-2.4386565077430333e-06 ,      0.0 ,7.308876327319699e-06   ,6.4480572429844884e-06 ,0.09388515493208463  ,0.009403976304189857    ,-1.4187110935037015e-05 ,-3.3102542755636667e-06 ,2.8314819152813926e-05 ,90.11913651838103      ,0.0 ,25.72422638601713     ,1.100942153173642       ,        0.0 ,        0.0 , 0.0
 0.0 ,0.0 ,           0.0 ,            0.0 ,            0.0 ,            0.0 ,              0.0 ,                   0.0 , 507.0 ,107.4219 ,-0.570312 ,           0.0 ,           0.0 ,       0.0 ,132.1585       ,-13.78616   ,-0.0004419042    ,-6.181253e-06    ,                 0.0 ,             0.0 ,             0.0 ,                 0.0 ,                 0.0 ,        0.0 ,1.2076362965483418     ,            0.0 ,            0.0 ,            0.0 ,              0.0 ,                   0.0 ,  0.0 ,0.0 ,1158.4244591087675   ,1.0                ,0.0 ,-9.091003931826553  ,-15.251038108652876 ,0.05901891720916344     ,-7.9206513292941185 ,          0.0 ,          0.0 ,-9.090381763607475  ,-15.2516580673738   ,-7.9206513292941185 ,-32.262688478106526 ,  3.9582456000585475 , 10.754229548801344 ,  6.855884040204096  ,-4.0950542598339315   ,-10.255087574849604 ,0.05901891720916344     ,-2.924702066026946  ,          0.0 ,          0.0 ,-4.094434764754057   ,-10.255709743068682 ,-2.924702066026946  ,-17.27484587785402  ,  3.9582456000585475 ,  5.758282055041413  ,  6.855884040204096  ,6.424429027684881e-06   ,-1.6861696742276593e-06 ,6.771225268986758e-07   ,      0.0 ,      0.0 ,      0.0 ,6.4677692262959644e-06  ,-1.7295125651945803e-06 ,      0.0 ,4.738257868737681e-06   ,4.322848743670187e-06  ,0.04012740215859996  ,-3.637446093388988e-05  ,-4.3290814050399325e-06 ,0.0                     ,3.6781016842359185e-05 ,125.30591194535268     ,0.0 ,0.0                   ,0.0                     ,        0.0 ,        0.0 , 0.0
 0.0 ,0.0 ,           0.0 ,            0.0 ,            0.0 ,            0.0 ,              0.0 ,                   0.0 , 508.0 ,105.4688 ,-0.578125 ,           0.0 ,           0.0 ,       0.0 ,144.2924       ,-15.00736   ,-0.0006953751    ,-7.248362e-06    ,                 0.0 ,             0.0 ,             0.0 ,                 0.0 ,                 0.0 ,        0.0 ,1.2253983814791458     ,            0.0 ,            0.0 ,            0.0 ,              0.0 ,                   0.0 ,  0.0 ,0.0 ,1159.720224037867    ,1.0                ,0.0 ,-9.261213521920613  ,-15.395628499519432 ,0.02739738776388305     ,-8.017304431919444  ,          0.0 ,          0.0 ,-9.261053690544033  ,-15.395787019837435 ,-8.017304431919444  ,-32.67414737496606  ,  3.977741137563321  , 10.891382042271626 ,  6.889648795041489  ,-4.264344623772901    ,-10.398758695604307 ,0.02739738776388305     ,-3.0204331444706933 ,          0.0 ,          0.0 ,-4.264182638477724   ,-10.398918526980886 ,-3.0204331444706933 ,-17.683533760703604 ,  3.977741137563321  ,  5.894510700593916  ,  6.889648795041489  ,4.329201212465507e-06   ,-1.4736025276630092e-06 ,2.910108622394676e-07   ,      0.0 ,      0.0 ,      0.0 ,4.333065885535936e-06   ,-1.4774669111220369e-06 ,      0.0 ,2.8555989744138994e-06  ,3.0253200759811375e-06 ,0.035367726052376536 ,-2.2747250313821304e-05 ,-1.8359583456275e-06    ,0.0                     ,2.290538126519789e-05  ,141.31759443610326     ,0.0 ,0.0                   ,0.0                     ,        0.0 ,        0.0 , 0.0
 0.0 ,0.0 ,           0.0 ,            0.0 ,            0.0 ,            0.0 ,              0.0 ,                   0.0 , 509.0 ,103.5156 ,-0.585938 ,           0.0 ,           0.0 ,       0.0 ,154.0714       ,-15.99308   ,-0.001000855     ,-1.45627e-05     ,                 0.0 ,             0.0 ,             0.0 ,                 0.0 ,                 0.0 ,        0.0 ,1.786967250042872      ,            0.0 ,            0.0 ,            0.0 ,              0.0 ,                   0.0 ,  0.0 ,0.0 ,1160.9514923268216   ,1.0                ,0.0 ,-9.165334772711871  ,-15.536528628568252 ,-0.0033587717087145744  ,-8.04952949578377   ,          0.0 ,          0.0 ,-9.165323696217046  ,-15.536540288036491 ,-8.04952949578377   ,-32.751398874734775 ,  4.055423394403369  , 10.917133435195964 ,  7.024198644250003  ,-4.168465676942616    ,-10.539661398220204 ,-0.0033587717087145744  ,-3.052660280519021  ,          0.0 ,          0.0 ,-4.168454600447791   ,-10.539672766201736 ,-3.052660280519021  ,-17.760787271183496 ,  4.055423394403369  ,  5.920261713618665  ,  7.024198644250003  ,6.422669104558844e-06   ,-1.6399694844105685e-06 ,7.696046298961008e-07   ,      0.0 ,      0.0 ,      0.0 ,6.4698578548278505e-06  ,-1.6871576965924803e-06 ,      0.0 ,4.782700222145194e-06   ,4.307799638132944e-06  ,0.1114303378345233   ,0.017538007869591286    ,-1.0815225169573075e-05 ,-1.6905527318940337e-06 ,1.0882065772103486e-05 ,68.85565353795334      ,0.0 ,72.56084871824888     ,2.5210689723302937      ,        0.0 ,        0.0 , 0.0
 0.0 ,0.0 ,           0.0 ,            0.0 ,            0.0 ,            0.0 ,              0.0 ,                   0.0 , 510.0 ,101.5625 ,-0.59375  ,           0.0 ,           0.0 ,       0.0 ,161.5611       ,-16.74986   ,-0.001286903     ,-0.0001030021    ,                 0.0 ,             0.0 ,             0.0 ,                 0.0 ,                 0.0 ,        0.0 ,2.2886804614198017     ,            0.0 ,            0.0 ,            0.0 ,              0.0 ,                   0.0 ,  0.0 ,0.0 ,1157.7842888980476   ,1.0                ,0.0 ,-8.942490513719527  ,-15.669092075841043 ,-0.0935093871484929     ,-8.058996502823279  ,          0.0 ,          0.0 ,-8.938737111784716  ,-15.672847046029702 ,-8.058996502823279  ,-32.670585117156    ,  4.173130953553413  , 10.890195179082001 ,  7.2280743554458535 ,-3.9451164481904075   ,-10.671719353585617 ,-0.0935093871484929     ,-3.061622566162205  ,          0.0 ,          0.0 ,-3.9413625417020586  ,-10.675473539647351 ,-3.061622566162205  ,-17.67845851864357  ,  4.173130953553413  ,  5.892818954822112  ,  7.2280743554458535 ,6.5465772567134616e-06  ,-1.757636817993355e-06  ,6.566615017950281e-07   ,      0.0 ,      0.0 ,      0.0 ,6.591229769786161e-06   ,-1.8022892878914396e-06 ,      0.0 ,4.788940546656645e-06   ,4.420403611590018e-06  ,0.10809922870361535  ,0.01724638974446962     ,-1.0380083349650335e-05 ,-1.7010183034017677e-06 ,2.741565314487315e-06  ,84.55828926806777      ,0.0 ,71.19108666254057     ,2.4757287175989684      ,        0.0 ,        0.0 , 0.0
 0.0 ,0.0 ,           0.0 ,            0.0 ,            0.0 ,            0.0 ,              0.0 ,                   0.0 , 511.0 ,99.60938 ,-0.601562 ,           0.0 ,           0.0 ,       0.0 ,167.0698       ,-17.30854   ,-0.002239316     ,-0.0001746114    ,                 0.0 ,             0.0 ,             0.0 ,                 0.0 ,                 0.0 ,        0.0 ,2.155383040654555      ,            0.0 ,            0.0 ,            0.0 ,              0.0 ,                   0.0 ,  0.0 ,0.0 ,1258.2816397494166   ,1.0                ,0.0 ,-8.565941736259862  ,-15.788358422480268 ,-0.13917225069960668    ,-8.032995920238854  ,          0.0 ,          0.0 ,-8.560455371467729  ,-15.793845358877444 ,-8.032995920238854  ,-32.38729544629003  ,  4.3419019066235105 , 10.795765984926275 ,  7.520394481747636  ,-3.5682639644206864   ,-10.790683390794282 ,-0.13917225069960668    ,-3.035319055138626  ,          0.0 ,          0.0 ,-3.562777187133487   ,-10.796169830234696 ,-3.035319055138626  ,-17.394265419152944 ,  4.3419019066235105 ,  5.798088767049609  ,  7.520394481747636  ,4.979233802055903e-06   ,-1.4654275397389071e-06 ,5.334901605502095e-07   ,      0.0 ,      0.0 ,      0.0 ,5.006352076307085e-06   ,-1.4925458139900898e-06 ,      0.0 ,3.5138062200861477e-06  ,3.4070461882496037e-06 ,0.03041797494348927  ,-6.879403279516365e-06  ,-6.788063410921005e-07  ,0.0                     ,6.976942862921709e-06  ,164.83600166138368     ,0.0 ,0.0                   ,0.0                     ,        0.0 ,        0.0 , 0.0
 0.0 ,0.0 ,           0.0 ,            0.0 ,            0.0 ,            0.0 ,              0.0 ,                   0.0 , 512.0 ,97.65625 ,-0.609375 ,           0.0 ,           0.0 ,       0.0 ,170.9992       ,-17.70929   ,-0.001609434     ,0.0005885228     ,                 0.0 ,             0.0 ,             0.0 ,                 0.0 ,                 0.0 ,        0.0 ,1.897549726021445      ,            0.0 ,            0.0 ,            0.0 ,              0.0 ,                   0.0 ,  0.0 ,0.0 ,1165.6349041706032   ,1.0                ,0.0 ,-8.153964592147851  ,-15.96657645163784  ,-0.08021617246841693    ,-8.027638350585022  ,          0.0 ,          0.0 ,-8.148047079555035  ,-15.972492601280635 ,-8.027638350585022  ,-32.14818104109213  ,  4.554653717178397  , 10.716060574895138 ,  7.888893150220518  ,-3.156215427654914    ,-10.968829199807267 ,-0.08021617246841693    ,-3.0298891605526603 ,          0.0 ,          0.0 ,-3.1502981592749624  ,-10.974746200764255 ,-3.0298891605526603 ,-17.154933773656808 ,  4.554653717178397  ,  5.718310992749862  ,  7.888893150220518  ,5.508155815988271e-07   ,-8.874487480509179e-07  ,2.1005808870288723e-07  ,      0.0 ,      0.0 ,      0.0 ,1.0423996847825825e-06  ,-1.3790325879225538e-06 ,      0.0 ,-3.3663338128989454e-07 ,1.318106231082627e-06  ,0.0581265637982495   ,0.008397528596844027    ,-2.4126030946618936e-06 ,-9.684992924763926e-08  ,5.282729397160643e-06  ,118.73945493982507     ,0.0 ,47.89553232818699     ,1.418234674995389       ,        0.0 ,        0.0 , 0.0
 0.0 ,0.0 ,           0.0 ,            0.0 ,            0.0 ,            0.0 ,              0.0 ,                   0.0 , 513.0 ,95.70313 ,-0.617188 ,           0.0 ,           0.0 ,       0.0 ,173.7504       ,-17.99223   ,0.001973499      ,0.0003741451     ,                 0.0 ,             0.0 ,             0.0 ,                 0.0 ,                 0.0 ,        0.0 ,2.414431854242059      ,            0.0 ,            0.0 ,            0.0 ,              0.0 ,                   0.0 ,  0.0 ,0.0 ,1162.6493306823393   ,1.0                ,0.0 ,-7.970073220221895  ,-16.010565877388515 ,-0.4016678866072128     ,-8.020814219327061  ,          0.0 ,          0.0 ,-7.930119840835692  ,-16.05051883127245  ,-8.020814219327061  ,-32.00145404701133  ,  4.6630191710597755 , 10.667150556219704 ,  8.07658760716252   ,-2.9722492523849975   ,-11.012741363021552 ,-0.4016678866072128     ,-3.022990370542467  ,          0.0 ,          0.0 ,-2.9322963670333277  ,-11.05269425419527  ,-3.022990370542467  ,-17.007980933902463 ,  4.6630191710597755 ,  5.66932671370613   ,  8.07658760716252   ,1.4602864637744455e-06  ,-1.5580377762211914e-06 ,2.265369625935585e-07   ,      0.0 ,      0.0 ,      0.0 ,1.950944444723645e-06   ,-2.0486954733203982e-06 ,      0.0 ,-9.775147821948762e-08  ,2.109630837740214e-06  ,0.05968103120744554  ,0.00901552803161673     ,-2.4368500020849752e-06 ,-1.0394894213134534e-07 ,3.195223380854557e-06  ,118.16886180306356     ,0.0 ,51.40623185797573     ,1.522190003699528       ,        0.0 ,        0.0 , 0.0
 0.0 ,0.0 ,           0.0 ,            0.0 ,            0.0 ,            0.0 ,              0.0 ,                   0.0 , 514.0 ,93.75    ,-0.625    ,           0.0 ,           0.0 ,       0.0 ,175.6803       ,-18.19303   ,-0.00116453      ,-0.001701236     ,                 0.0 ,             0.0 ,             0.0 ,                 0.0 ,                 0.0 ,        0.0 ,0.778826527398295      ,            0.0 ,            0.0 ,            0.0 ,              0.0 ,                   0.0 ,  0.0 ,0.0 ,1135.9359032749408   ,1.0                ,0.0 ,-8.071264418330546  ,-16.294314567913837 ,-0.3707473666079314     ,-8.134567012798456  ,          0.0 ,          0.0 ,-8.031763769701765  ,-16.33381744375177  ,-8.134567012798456  ,-32.50014719956936  ,  4.765873124224679  , 10.833383263872499 ,  8.254734683318517  ,-3.073334840279619    ,-11.296387035490955 ,-0.3707473666079314     ,-3.136637417363139  ,          0.0 ,          0.0 ,-3.03383433063532    ,-11.335887415616686 ,-3.136637417363139  ,-17.5063593105181   ,  4.765873124224679  ,  5.835453820073097  ,  8.254734683318517  ,4.647258680973123e-07   ,-3.518239116992475e-07  ,3.2407051832769904e-07  ,      0.0 ,      0.0 ,      0.0 ,7.203750847051427e-07   ,-6.07473128307078e-07   ,      0.0 ,1.1290195639806473e-07  ,6.707687254816301e-07  ,0.028754953685063568 ,-3.0104279980536148e-06 ,-4.582321859181708e-07  ,0.0                     ,3.066841441229186e-06  ,174.03554382456682     ,0.0 ,0.0                   ,0.0                     ,        0.0 ,        0.0 , 0.0
 0.0 ,0.0 ,           0.0 ,            0.0 ,            0.0 ,            0.0 ,              0.0 ,                   0.0 , 515.0 ,91.79688 ,-0.632812 ,           0.0 ,           0.0 ,       0.0 ,176.9058       ,-18.32339   ,-0.005801264     ,-0.0007924507    ,                 0.0 ,             0.0 ,             0.0 ,                 0.0 ,                 0.0 ,        0.0 ,0.844764564773558      ,            0.0 ,            0.0 ,            0.0 ,              0.0 ,                   0.0 ,  0.0 ,0.0 ,1259.7543644324905   ,1.0                ,0.0 ,-6.677549562729312  ,-16.372333637996334 ,-0.11467071717329275    ,-7.887285308822693  ,          0.0 ,          0.0 ,-6.668535779086498  ,-16.38135057687459  ,-7.887285308822693  ,-30.937166838059046 ,  5.3306824463360405 , 10.31239085555421  ,  9.233013246587033  ,-1.6795579638135254   ,-11.37434564391486  ,-0.11467071717329275    ,-2.889293393847142  ,          0.0 ,          0.0 ,-1.670543682930846   ,-11.383359879837652 ,-2.889293393847142  ,-15.943198827778254 ,  5.3306824463360405 ,  5.314398940042438  ,  9.233013246587033  ,-1.0270479557649276e-06 ,1.9373148645640517e-07  ,3.139548135882951e-08   ,      0.0 ,      0.0 ,      0.0 ,1.961414580084406e-07   ,-1.0294579725449607e-06 ,      0.0 ,-8.333163041881852e-07  ,6.599300580190674e-07  ,0.14040814248970476  ,0.01576519200529405     ,-9.63482458528164e-07   ,-1.477341365973381e-07  ,6.549509150062793e-07  ,80.66824524501963      ,0.0 ,96.53551811887323     ,2.750869891685153       ,        0.0 ,        0.0 , 0.0
 0.0 ,0.0 ,           0.0 ,            0.0 ,            0.0 ,            0.0 ,              0.0 ,                   0.0 , 516.0 ,89.84375 ,-0.640625 ,           0.0 ,           0.0 ,       0.0 ,177.7272       ,-18.41334   ,-0.002714085     ,0.002348472      ,                 0.0 ,             0.0 ,             0.0 ,                 0.0 ,                 0.0 ,        0.0 ,0.48217091914563415    ,            0.0 ,            0.0 ,            0.0 ,              0.0 ,                   0.0 ,  0.0 ,0.0 ,1146.067741227478    ,1.0                ,0.0 ,-4.994337621884413  ,-16.418743650506958 ,-0.5854731953954088     ,-7.574282907926631  ,          0.0 ,          0.0 ,-4.951710915142639  ,-16.46137422414076  ,-7.574282907926631  ,-28.987364564046885 ,  6.075333248659372  ,  9.662455466436052 , 10.522786236727743  ,0.0036823755053490004 ,-11.420725099629953 ,-0.5854731953954088     ,-2.576262495267523  ,          0.0 ,          0.0 ,0.046309709571281665 ,-11.463354418615438 ,-2.576262495267523  ,-13.993307137410106 ,  6.075333248659372  ,  4.664434928312112  , 10.522786236727743  ,-7.728920174771411e-07  ,1.9438368620585264e-07  ,7.329991243107079e-08   ,      0.0 ,      0.0 ,      0.0 ,1.9577036155222355e-07  ,-7.742787410406039e-07  ,      0.0 ,-5.785081866200127e-07  ,5.129700687769807e-07  ,0.17898362423094272  ,0.020118949887363024    ,-9.866433778671895e-07  ,-1.0826088532613826e-07 ,2.0748624912382135e-07 ,52.61439222593314      ,0.0 ,125.28873615870994    ,3.5470395709399893      ,        0.0 ,        0.0 , 0.0
 0.0 ,0.0 ,           0.0 ,            0.0 ,            0.0 ,            0.0 ,              0.0 ,                   0.0 , 517.0 ,87.89063 ,-0.648438 ,           0.0 ,           0.0 ,       0.0 ,178.3147       ,-18.47991   ,0.001879309      ,-0.001340912     ,                 0.0 ,             0.0 ,             0.0 ,                 0.0 ,                 0.0 ,        0.0 ,0.0                    ,            0.0 ,            0.0 ,            0.0 ,              0.0 ,                   0.0 ,  0.0 ,0.0 ,1090.904783282164    ,1.0                ,0.0 ,-4.432748944991145  ,-16.749276493580883 ,-0.40957301861459017    ,-7.600757493622151  ,          0.0 ,          0.0 ,-4.364466927601212  ,-16.81755724155252  ,-7.600757493622151  ,-28.782781533387016 ,  6.500847208300792  ,  9.594259710353729 , 11.259798689274547  ,0.5652805537069554    ,-11.751243293133424 ,-0.40957301861459017    ,-2.602728276112898  ,          0.0 ,          0.0 ,0.6335639986366552   ,-11.819528091333453 ,-2.602728276112898  ,-13.788690885235171 ,  6.500847208300792  ,  4.596230246855399  , 11.259798689274547  ,0.0                     ,0.0                     ,0.0                     ,      0.0 ,      0.0 ,      0.0 ,0.0                     ,0.0                     ,      0.0 ,0.0                     ,0.0                    ,0.16806831308650694  ,0.015637871681035323    ,-3.0798895462230813e-07 ,-5.047509108080072e-08  ,3.2184178816831646e-07 ,81.61268465951359      ,0.0 ,96.66070176248094     ,2.7473456688901874      ,        0.0 ,        0.0 , 0.0
 0.0 ,0.0 ,           0.0 ,            0.0 ,            0.0 ,            0.0 ,              0.0 ,                   0.0 , 518.0 ,85.9375  ,-0.65625  ,           0.0 ,           0.0 ,       0.0 ,178.6802       ,-18.52427   ,-0.001875213     ,-0.0008280829    ,                 0.0 ,             0.0 ,             0.0 ,                 0.0 ,                 0.0 ,        0.0 ,1.9747002032102006     ,            0.0 ,            0.0 ,            0.0 ,              0.0 ,                   0.0 ,  0.0 ,0.0 ,1208.25545591348     ,1.0                ,0.0 ,-3.605289490578457  ,-16.42909567695126  ,-0.3637882107316016     ,-7.293570053156392  ,          0.0 ,          0.0 ,-3.498960682129002  ,-16.535419583964938 ,-7.293570053156392  ,-27.32795394421683  ,  6.750932489474267  ,  9.109316841502707 , 11.692957219131312  ,1.3927425788274954    ,-11.431060380401679 ,-0.3637882107316016     ,-2.295537915986323  ,          0.0 ,          0.0 ,1.4990714082149958   ,-11.537391005832813 ,-2.295537915986323  ,-12.333857430614328 ,  6.750932489474267  ,  4.111286355334691  , 11.692957219131312  ,-1.9005710928175327e-07 ,-4.2316743168011176e-07 ,-1.6234421844680608e-07 ,      0.0 ,      0.0 ,      0.0 ,5.978758877668563e-07   ,-1.2111005364913396e-06 ,      0.0 ,-6.132246433268743e-07  ,9.435284259758719e-07  ,0.17727345299433223  ,0.016469616998190002    ,-2.9840216584504125e-07 ,-4.261525855497193e-08  ,1.9620104715943027e-07 ,75.78102766396992      ,0.0 ,102.71505759353595    ,2.9050262489272685      ,        0.0 ,        0.0 , 0.0
 0.0 ,0.0 ,           0.0 ,            0.0 ,            0.0 ,            0.0 ,              0.0 ,                   0.0 , 519.0 ,83.98438 ,-0.664062 ,           0.0 ,           0.0 ,       0.0 ,178.9162       ,-18.55568   ,-0.0001695061    ,-0.00117344      ,                 0.0 ,             0.0 ,             0.0 ,                 0.0 ,                 0.0 ,        0.0 ,2.352433870163081      ,            0.0 ,            0.0 ,            0.0 ,              0.0 ,                   0.0 ,  0.0 ,0.0 ,1094.6962934174448   ,1.0                ,0.0 ,-3.1662023922066496 ,-16.72448709324239  ,-0.56105993863589       ,-7.335963637039027  ,          0.0 ,          0.0 ,-3.0969042643386167 ,-16.79378135010118  ,-7.335963637039027  ,-27.226651959905453 ,  7.061919138819224  ,  9.075549495231177 , 12.231602995136509  ,1.8318379806336713    ,-11.726446358779587 ,-0.56105993863589       ,-2.3379244581704812 ,          0.0 ,          0.0 ,1.9011352337200247   ,-11.795744495443305 ,-2.3379244581704812 ,-12.232533113163797 ,  7.061919138819224  ,  4.0775110377212656 , 12.231602995136509  ,-4.931252901075743e-07  ,-3.514262161606808e-07  ,2.0390652400230694e-07  ,      0.0 ,      0.0 ,      0.0 ,9.53741562756622e-07    ,-1.7982930395722983e-06 ,      0.0 ,-8.445517105552599e-07  ,1.4167101227271947e-06 ,0.07463248910078901  ,0.004792913153367777    ,-1.1272258907874462e-07 ,-3.998789098563798e-09  ,4.188399579194113e-07  ,146.19402758245354     ,0.0 ,32.490867506514164    ,0.8822753509277727      ,        0.0 ,        0.0 , 0.0
 0.0 ,0.0 ,           0.0 ,            0.0 ,            0.0 ,            0.0 ,              0.0 ,                   0.0 , 520.0 ,82.03125 ,-0.671875 ,           0.0 ,           0.0 ,       0.0 ,179.0589       ,-18.57776   ,-0.0006264314    ,-0.000739632     ,                 0.0 ,             0.0 ,             0.0 ,                 0.0 ,                 0.0 ,        0.0 ,0.8272832997664881     ,            0.0 ,            0.0 ,            0.0 ,              0.0 ,                   0.0 ,  0.0 ,0.0 ,1091.1219500164839   ,1.0                ,0.0 ,-3.0352458183303694 ,-16.889904052825187 ,0.12094229801102932     ,-7.3761595178555535 ,          0.0 ,          0.0 ,-3.032098473301773  ,-16.893050072952587 ,-7.3761595178555535 ,-27.301310060970426 ,  7.143147878004523  ,  9.100435222978938 , 12.37229551224127   ,1.962812323773266     ,-11.891847415705227 ,0.12094229801102932     ,-2.3781027559991714 ,          0.0 ,          0.0 ,1.9659588458401704   ,-11.894994831745251 ,-2.3781027559991714 ,-12.307138210990932 ,  7.143147878004523  ,  4.1023794052326705 , 12.37229551224127   ,-1.3011015841610785e-06 ,3.2415698497045007e-07  ,2.7989460028953096e-07  ,      0.0 ,      0.0 ,      0.0 ,3.4454369580161027e-07  ,-1.3214882651931348e-06 ,      0.0 ,-9.769448109075327e-07  ,8.794764479095943e-07  ,0.08897887673600201  ,0.006280633408045263    ,-1.2544609204940048e-07 ,-5.2397683329372995e-09 ,2.537812270901628e-07  ,136.95978338755543     ,0.0 ,42.57404290999975     ,1.15607958578832        ,        0.0 ,        0.0 , 0.0
 0.0 ,0.0 ,           0.0 ,            0.0 ,            0.0 ,            0.0 ,              0.0 ,                   0.0 , 521.0 ,80.07813 ,-0.679688 ,           0.0 ,           0.0 ,       0.0 ,179.1432       ,-18.594     ,0.0008208951     ,-0.0001608605    ,                 0.0 ,             0.0 ,             0.0 ,                 0.0 ,                 0.0 ,        0.0 ,1.2250273350127525     ,            0.0 ,            0.0 ,            0.0 ,              0.0 ,                   0.0 ,  0.0 ,0.0 ,1237.8780227147388   ,1.0                ,0.0 ,-2.863463017507475  ,-17.16261609939556  ,-0.008545184425842595   ,-7.44703807833885   ,          0.0 ,          0.0 ,-2.8628965548679393 ,-17.16318734948001  ,-7.44703807833885   ,-27.473118357700884 ,  7.37760560610891   ,  9.157705973818846 , 12.778387851447938  ,2.13458040738518      ,-12.164573890099797 ,-0.008545184425842595   ,-2.4489936260646528 ,          0.0 ,          0.0 ,2.135148129898058    ,-12.165141612612674 ,-2.4489936260646528 ,-12.478986982343779 ,  7.37760560610891   ,  4.159662722864906  , 12.778387851447938  ,-1.8239109746004377e-06 ,4.515136537269751e-07   ,2.907654507015404e-07   ,      0.0 ,      0.0 ,      0.0 ,4.744803666898031e-07   ,-1.8468774794972278e-06 ,      0.0 ,-1.372397026929772e-06  ,1.2264790758242584e-06 ,0.15431927018219976  ,0.013352185664020307    ,-1.5988769679129947e-07 ,-6.3810501030379776e-09 ,1.340077638691062e-07  ,89.85010932340352      ,0.0 ,89.64958954953221     ,2.446000447960167       ,        0.0 ,        0.0 , 0.0
 0.0 ,0.0 ,           0.0 ,            0.0 ,            0.0 ,            0.0 ,              0.0 ,                   0.0 , 522.0 ,78.125   ,-0.6875   ,           0.0 ,           0.0 ,       0.0 ,179.1883       ,-18.60633   ,0.004123274      ,8.729898e-05     ,                 0.0 ,             0.0 ,             0.0 ,                 0.0 ,                 0.0 ,        0.0 ,1.5003883177316326     ,            0.0 ,            0.0 ,            0.0 ,              0.0 ,                   0.0 ,  0.0 ,0.0 ,1238.3833238481802   ,1.0                ,0.0 ,-3.0791569216326398 ,-17.45781699951418  ,0.083130180444942       ,-7.6019296159798255 ,          0.0 ,          0.0 ,-3.0775539687016913 ,-17.459427910006298 ,-7.6019296159798255 ,-28.138898199733966 ,  7.428753284959848  ,  9.379635274806146 , 12.86697945604793   ,1.918906570947367     ,-12.459756936711972 ,0.083130180444942       ,-2.6038665910851857 ,          0.0 ,          0.0 ,1.9205092410492715   ,-12.461361308376635 ,-2.6038665910851857 ,-13.144720824450703 ,  7.428753284959848  ,  4.3815731781730465 , 12.86697945604793   ,-3.3411882644475384e-06 ,8.311062595215949e-07   ,3.596626215712002e-07   ,      0.0 ,      0.0 ,      0.0 ,8.544031339145823e-07   ,-3.36448496272422e-06   ,      0.0 ,-2.510081826848849e-06  ,2.2304732869317692e-06 ,0.2509853299577852   ,0.023898654301852992    ,-1.8970811876733824e-07 ,-8.29783859731093e-09   ,5.056926687424791e-08  ,18.590926007013923     ,0.0 ,161.8880349728429     ,4.397401634587487       ,        0.0 ,        0.0 , 0.0
 0.0 ,0.0 ,           0.0 ,            0.0 ,            0.0 ,            0.0 ,              0.0 ,                   0.0 , 523.0 ,76.17188 ,-0.695312 ,           0.0 ,           0.0 ,       0.0 ,179.2067       ,-18.61598   ,0.005927067      ,-0.0001481335    ,                 0.0 ,             0.0 ,             0.0 ,                 0.0 ,                 0.0 ,        0.0 ,1.115691727326955      ,            0.0 ,            0.0 ,            0.0 ,              0.0 ,                   0.0 ,  0.0 ,0.0 ,1239.8447420327632   ,1.0                ,0.0 ,-3.6474583998033476 ,-17.55531254808679  ,0.2870890373078788      ,-7.756035197552974  ,          0.0 ,          0.0 ,-3.6389098139942684 ,-17.56386678825356  ,-7.756035197552974  ,-28.958807276026352 ,  7.231065717527581  ,  9.652936322688294 , 12.524572473366888  ,1.3506153083505232    ,-12.557241836844563 ,0.2870890373078788      ,-2.7579616365958497 ,          0.0 ,          0.0 ,1.3591636534902791   ,-12.565790673146203 ,-2.7579616365958497 ,-13.964594047800192 ,  7.231065717527581  ,  4.654862417917853  , 12.524572473366888  ,-3.759335801037425e-06  ,9.361254486818735e-07   ,3.701245260170578e-07   ,      0.0 ,      0.0 ,      0.0 ,9.603366686137262e-07   ,-3.7835473239172165e-06 ,      0.0 ,-2.823210849624495e-06  ,2.508121496744076e-06  ,0.1993439183804417   ,0.01706315639983177     ,-9.963295073342998e-08  ,-1.1776182644825535e-08 ,4.2348038502535034e-08 ,72.61704744601174      ,0.0 ,108.4394025160083     ,3.0330615472457065      ,        0.0 ,        0.0 , 0.0
 0.0 ,0.0 ,           0.0 ,            0.0 ,            0.0 ,            0.0 ,              0.0 ,                   0.0 , 524.0 ,74.21875 ,-0.703125 ,           0.0 ,           0.0 ,       0.0 ,179.2067       ,-18.6238    ,0.006817261      ,-0.0001295816    ,                 0.0 ,             0.0 ,             0.0 ,                 0.0 ,                 0.0 ,        0.0 ,2.0676367488223892     ,            0.0 ,            0.0 ,            0.0 ,              0.0 ,                   0.0 ,  0.0 ,0.0 ,1103.5363026877371   ,1.0                ,0.0 ,-4.715578638821769  ,-17.673085750810863 ,0.40913997775591227     ,-8.012173377064336  ,          0.0 ,          0.0 ,-4.6998563950333985 ,-17.688810681333255 ,-8.012173377064336  ,-30.400838229745652 ,  6.801040250035741  , 10.133614220485974 , 11.77974721198964   ,0.28250665836407596   ,-12.675001076024104 ,0.40913997775591227     ,-3.0140870712959296 ,          0.0 ,          0.0 ,0.298229181764021    ,-12.690723091010447 ,-3.0140870712959296 ,-15.406583356502255 ,  6.801040250035741  ,  5.135527791164475  , 11.77974721198964   ,-4.263142789877713e-06  ,1.0625860044573678e-06  ,3.6473735835009827e-07  ,      0.0 ,      0.0 ,      0.0 ,1.0722002592466423e-06  ,-4.272757666738134e-06  ,      0.0 ,-3.2005575058087714e-06 ,2.8276822234585405e-06 ,0.16213782237197713  ,0.014352908663790444    ,-5.918363980198888e-08  ,-3.801154274222281e-09  ,5.2951573088889626e-08 ,90.79964570912816      ,0.0 ,90.1050182609365      ,2.541053494729864       ,        0.0 ,        0.0 , 0.0
 0.0 ,0.0 ,           0.0 ,            0.0 ,            0.0 ,            0.0 ,              0.0 ,                   0.0 , 525.0 ,72.26563 ,-0.710938 ,           0.0 ,           0.0 ,       0.0 ,179.1942       ,-18.63036   ,0.006519784      ,-0.0001533025    ,                 0.0 ,             0.0 ,             0.0 ,                 0.0 ,                 0.0 ,        0.0 ,1.768092814994656      ,            0.0 ,            0.0 ,            0.0 ,              0.0 ,                   0.0 ,  0.0 ,0.0 ,1104.3112366320447   ,1.0                ,0.0 ,-5.884674083367088  ,-17.799200882706263 ,0.48816854817695693     ,-8.296710439741995  ,          0.0 ,          0.0 ,-5.8615353683383615 ,-17.822340783602836 ,-8.296710439741995  ,-31.9805787315117   ,  6.361729582731753  , 10.660194885809982 , 11.018841957507291  ,-0.886598508782028    ,-12.801127080961951 ,0.48816854817695693     ,-3.2986373727734524 ,          0.0 ,          0.0 ,-0.8634597937533022  ,-12.824265305844389 ,-3.2986373727734524 ,-16.98636274421987  ,  6.361729582731753  ,  5.662121600543882  , 11.018841957507291  ,-4.298805715906039e-06  ,1.0779928231135272e-06  ,3.9097743838914747e-07  ,      0.0 ,      0.0 ,      0.0 ,1.0910663842895549e-06  ,-4.311879767228357e-06  ,      0.0 ,-3.220813104992277e-06  ,2.85701632886406e-06   ,0.24921697766685033  ,0.02774135936718436     ,-1.2114945590402342e-07 ,-6.5862476086160255e-09 ,0.0                    ,1.213984219509432e-07  ,0.0 ,180.36465977528934    ,4.998073351012861       ,        0.0 ,        0.0 , 0.0
 0.0 ,0.0 ,           0.0 ,            0.0 ,            0.0 ,            0.0 ,              0.0 ,                   0.0 , 526.0 ,70.3125  ,-0.71875  ,           0.0 ,           0.0 ,       0.0 ,179.1732       ,-18.63607   ,0.005691164      ,-0.0001904703    ,                 0.0 ,             0.0 ,             0.0 ,                 0.0 ,                 0.0 ,        0.0 ,1.787218942949153      ,            0.0 ,            0.0 ,            0.0 ,              0.0 ,                   0.0 ,  0.0 ,0.0 ,1105.0005517804923   ,1.0                ,0.0 ,-7.235374177379597  ,-17.942207008275783 ,0.5452267176786857      ,-8.622402272092069  ,          0.0 ,          0.0 ,-7.20478653471834   ,-17.972795884013394 ,-8.622402272092069  ,-33.79998065325261  ,  5.876313693270038  , 11.266661393785673 , 10.178075396819388  ,-2.237302232495377    ,-12.94413592451548  ,0.5452267176786857      ,-3.6243302528173613 ,          0.0 ,          0.0 ,-2.2067144960588823  ,-12.974723801614832 ,-3.6243302528173613 ,-18.805771248122955 ,  5.876313693270038  ,  6.268589331682407  , 10.178075396819388  ,-4.1814474370161075e-06 ,1.0490371978991447e-06  ,3.77442173770758e-07    ,      0.0 ,      0.0 ,      0.0 ,1.06750071578005e-06    ,-4.199910871979886e-06  ,      0.0 ,-3.1324101285607936e-06 ,2.7846750894412986e-06 ,0.21888998264327328  ,0.02776258663487581     ,-1.0494148274758264e-07 ,-3.2028699312873305e-09 ,0.0                    ,1.0499284372993753e-07 ,0.0 ,180.2925932131777     ,4.998069616541775       ,        0.0 ,        0.0 , 0.0
 0.0 ,0.0 ,           0.0 ,            0.0 ,            0.0 ,            0.0 ,              0.0 ,                   0.0 , 527.0 ,68.35938 ,-0.726562 ,           0.0 ,           0.0 ,       0.0 ,179.1462       ,-18.64118   ,0.004647975      ,3.674182e-05     ,                 0.0 ,             0.0 ,             0.0 ,                 0.0 ,                 0.0 ,        0.0 ,2.5496938183005797     ,            0.0 ,            0.0 ,            0.0 ,              0.0 ,                   0.0 ,  0.0 ,0.0 ,1105.6747829800406   ,1.0                ,0.0 ,-8.730632705646407  ,-18.0715935357723   ,0.5785858846692207      ,-8.973591899421784  ,          0.0 ,          0.0 ,-8.693036605787835  ,-18.109188673810625 ,-8.973591899421784  ,-35.77582009478422  ,  5.370168291064639  , 11.925271802507671 ,  9.301405898653908  ,-3.732556196734594    ,-13.073516309283207 ,0.5785858846692207      ,-3.9755183061612347 ,          0.0 ,          0.0 ,-3.694962649950741   ,-13.11111289762771  ,-3.9755183061612347 ,-20.781593630133113 ,  5.370168291064639  ,  6.927197797821986  ,  9.301405898653908  ,-5.027002230710705e-06  ,1.2646057991220093e-06  ,2.6408521854776053e-07  ,      0.0 ,      0.0 ,      0.0 ,1.2689611547067532e-06  ,-5.031357586295448e-06  ,      0.0 ,-3.7623964315886956e-06 ,3.332327250312163e-06  ,0.1894062246860274   ,0.027733927697742855    ,-9.08065517458077e-08   ,-2.210331810224415e-09  ,0.0                    ,9.084035880154204e-08  ,0.0 ,180.38918893002827    ,4.9980748904343         ,        0.0 ,        0.0 , 0.0
 0.0 ,0.0 ,           0.0 ,            0.0 ,            0.0 ,            0.0 ,              0.0 ,                   0.0 , 528.0 ,66.40625 ,-0.734375 ,           0.0 ,           0.0 ,       0.0 ,179.1151       ,-18.64588   ,0.004659695      ,-3.338411e-05    ,                 0.0 ,             0.0 ,             0.0 ,                 0.0 ,                 0.0 ,        0.0 ,2.034578645980829      ,            0.0 ,            0.0 ,            0.0 ,              0.0 ,                   0.0 ,  0.0 ,0.0 ,1106.362109264414    ,1.0                ,0.0 ,-10.228421002608581 ,-18.201347647768642 ,0.5808061093462101      ,-9.327886547696899  ,          0.0 ,          0.0 ,-10.185673844562492 ,-18.244095023258325 ,-9.327886547696899  ,-37.75765519807412  ,  4.932786610102429  , 12.585883829751362 ,  8.543836137863229  ,-5.230354956644288    ,-13.203283597225274 ,0.5808061093462101      ,-4.329823478516049  ,          0.0 ,          0.0 ,-5.187607798598201   ,-13.24602802250012  ,-4.329823478516049  ,-22.763463469890205 ,  4.932786610102429  ,  7.587820516558312  ,  8.543836137863229  ,-4.667793534465568e-06  ,1.018122920197132e-06   ,2.901406158224048e-07   ,      0.0 ,      0.0 ,      0.0 ,1.0265299316292636e-06  ,-4.6762003206954756e-06 ,      0.0 ,-3.649670546116757e-06  ,3.040752363004584e-06  ,0.07900882936464315  ,0.013269308832196208    ,-4.599559002128919e-08  ,-6.571516923578461e-10  ,5.50200558465294e-08   ,90.33591922197387      ,0.0 ,89.71030400167338     ,2.4392201176051134      ,        0.0 ,        0.0 , 0.0
 0.0 ,0.0 ,           0.0 ,            0.0 ,            0.0 ,            0.0 ,              0.0 ,                   0.0 , 529.0 ,64.45313 ,-0.742188 ,           0.0 ,           0.0 ,       0.0 ,179.0811       ,-18.6503    ,0.004116086      ,-2.588031e-05    ,                 0.0 ,             0.0 ,             0.0 ,                 0.0 ,                 0.0 ,        0.0 ,1.3026353533089885     ,            0.0 ,            0.0 ,            0.0 ,              0.0 ,                   0.0 ,  0.0 ,0.0 ,1107.1202434762079   ,1.0                ,0.0 ,-11.660276582839824 ,-18.331880054070716 ,0.5527083327774804      ,-9.671057326754319  ,          0.0 ,          0.0 ,-11.6142172723085   ,-18.37794524147384  ,-9.671057326754319  ,-39.66321667967577  ,  4.613044329051475  , 13.221073452651328 ,  7.990027561258693  ,-6.662213006241455    ,-13.333817446438085 ,0.5527083327774804      ,-4.67299375015595   ,          0.0 ,          0.0 ,-6.616150739132394   ,-13.379879713547146 ,-4.67299375015595   ,-24.66902616086224  ,  4.613044329051475  ,  8.223006919475225  ,  7.990027561258693  ,-3.639772345245911e-06  ,7.324898217211222e-07   ,1.3217966695562346e-07  ,      0.0 ,      0.0 ,      0.0 ,7.345398253618151e-07   ,-3.641822056187355e-06  ,      0.0 ,-2.9072825999930472e-06 ,2.3450595623568294e-06 ,0.05007885204960032  ,0.006577761584002367    ,-1.1544598756372029e-08 ,-8.114355199219533e-11  ,6.682785040161136e-08  ,136.06778600129786     ,0.0 ,43.97405250520782     ,1.2023845214512927      ,        0.0 ,        0.0 , 0.0
 0.0 ,0.0 ,           0.0 ,            0.0 ,            0.0 ,            0.0 ,              0.0 ,                   0.0 , 530.0 ,62.5     ,-0.75     ,           0.0 ,           0.0 ,       0.0 ,179.0451       ,-18.65451   ,0.003618315      ,-1.42901e-05     ,                 0.0 ,             0.0 ,             0.0 ,                 0.0 ,                 0.0 ,        0.0 ,1.5357142038357092     ,            0.0 ,            0.0 ,            0.0 ,              0.0 ,                   0.0 ,  0.0 ,0.0 ,1108.0975390709305   ,1.0                ,0.0 ,-12.965727131252127 ,-18.483060270983632 ,0.5113911226358598      ,-10.021589506032603 ,          0.0 ,          0.0 ,-12.91253573314648  ,-18.536253133375073 ,-10.021589506032603 ,-41.47037787743761  ,  4.44584814381021   , 13.82345953945237  ,  7.700436109682009  ,-7.967687314812919    ,-13.485017038564546 ,0.5113911226358598      ,-5.0235462665922395 ,          0.0 ,          0.0 ,-7.914492247903164   ,-13.538212105474301 ,-5.0235462665922395 ,-26.476249401486857 ,  4.44584814381021   ,  8.825415811916741  ,  7.700436109682009  ,-2.3561520554505527e-06 ,-4.769819940054695e-07  ,1.5170077180593796e-07  ,      0.0 ,      0.0 ,      0.0 ,-4.7132647826493667e-07 ,-2.3618073015786634e-06 ,      0.0 ,-2.8331337798436e-06    ,1.3868811650726544e-06 ,0.16150564689578875  ,0.02795871876186999     ,-9.158757548349183e-08  ,-6.678548019141813e-10  ,0.0                    ,9.1590542558422e-08    ,0.0 ,178.9880641765202     ,4.998042918698364       ,        0.0 ,        0.0 , 0.0
 0.0 ,0.0 ,           0.0 ,            0.0 ,            0.0 ,            0.0 ,              0.0 ,                   0.0 , 531.0 ,60.54688 ,-0.757812 ,           0.0 ,           0.0 ,       0.0 ,179.0077       ,-18.65858   ,0.003268747      ,-8.082546e-05    ,                 0.0 ,             0.0 ,             0.0 ,                 0.0 ,                 0.0 ,        0.0 ,2.4879738869277155     ,            0.0 ,            0.0 ,            0.0 ,              0.0 ,                   0.0 ,  0.0 ,0.0 ,1105.0726403510457   ,1.0                ,0.0 ,-14.32021453503658  ,-18.604194951019664 ,0.43558176702001794     ,-10.44347011160682  ,          0.0 ,          0.0 ,-14.232317565416064 ,-18.69208680037905  ,-10.44347011160682  ,-43.36787533961463  ,  4.45376971312796   , 14.45595979403663  ,  7.714157221396932  ,-9.322161686932445    ,-13.606137357810072 ,0.43558176702001794     ,-5.4454154287143774 ,          0.0 ,          0.0 ,-9.23426361010291    ,-13.694035434639607 ,-5.4454154287143774 ,-28.373713745877605 ,  4.45376971312796   ,  9.457904087091963  ,  7.714157221396932  ,-6.033761969481595e-06  ,-2.40837217227702e-06   ,2.762851855880798e-07   ,      0.0 ,      0.0 ,      0.0 ,-2.4007432529679913e-06 ,-6.041390616369911e-06  ,      0.0 ,-8.442136429468468e-06  ,3.2288638526986453e-06 ,0.11471374870251014  ,0.013964273796443695    ,-6.743022688357954e-08  ,-4.996594778299453e-10  ,3.948860589888902e-08  ,94.20768461144414      ,0.0 ,85.35650955307278     ,2.438868500473613       ,        0.0 ,        0.0 , 0.0
 0.0 ,0.0 ,           0.0 ,            0.0 ,            0.0 ,            0.0 ,              0.0 ,                   0.0 , 532.0 ,58.59375 ,-0.765625 ,           0.0 ,           0.0 ,       0.0 ,178.9691       ,-18.66254   ,0.002726716      ,-0.0001195236    ,                 0.0 ,             0.0 ,             0.0 ,                 0.0 ,                 0.0 ,        0.0 ,1.5928621716779192     ,            0.0 ,            0.0 ,            0.0 ,              0.0 ,                   0.0 ,  0.0 ,0.0 ,1235.532297702254    ,1.0                ,0.0 ,-15.428729397358921 ,-18.709185236547476 ,0.3245754928337605      ,-10.752390290048847 ,          0.0 ,          0.0 ,-15.115224386935461 ,-19.022685383170238 ,-10.752390290048847 ,-44.890302690887324 ,  4.541879360846686  , 14.96343478674165  ,  7.866766779452671  ,-10.43067351776845    ,-13.711126991480256 ,0.3245754928337605      ,-5.754335869598588  ,          0.0 ,          0.0 ,-10.117170045727443  ,-14.02463046352127  ,-5.754335869598588  ,-29.89613752101854  ,  4.541879360846686  ,  9.965378735848057  ,  7.866766779452671  ,-7.311372325482671e-06  ,-2.955108133716179e-06  ,4.512259808889204e-07   ,      0.0 ,      0.0 ,      0.0 ,-2.942864683688631e-06  ,-7.323615881992322e-06  ,      0.0 ,-1.0266482590443474e-05 ,3.7742295014476726e-06 ,0.0669087719228738   ,0.0035935172487436607   ,-1.555798459381039e-08  ,-3.0851581244667926e-10 ,5.564556024368882e-08  ,164.7661256243105      ,0.0 ,15.767007194861042    ,0.5321072501792322      ,        0.0 ,        0.0 , 0.0
 0.0 ,0.0 ,           0.0 ,            0.0 ,            0.0 ,            0.0 ,              0.0 ,                   0.0 , 533.0 ,56.64063 ,-0.773438 ,           0.0 ,           0.0 ,       0.0 ,178.9297       ,-18.66641   ,0.002597067      ,0.0001458277     ,                 0.0 ,             0.0 ,             0.0 ,                 0.0 ,                 0.0 ,        0.0 ,2.5308353724581263     ,            0.0 ,            0.0 ,            0.0 ,              0.0 ,                   0.0 ,  0.0 ,0.0 ,1236.9921459594432   ,1.0                ,0.0 ,-16.272625377904877 ,-18.901668107051595 ,0.4119160089868986      ,-10.987109249726842 ,          0.0 ,          0.0 ,-15.367239311534295 ,-19.807055197972602 ,-10.987109249726842 ,-46.161401173636804 ,  4.736364906630071  , 15.387133048167826 ,  8.20362573045797   ,-11.274562592982832   ,-13.903607197450373 ,0.4119160089868986      ,-5.989048305002049  ,          0.0 ,          0.0 ,-10.369176444714123  ,-14.808994370269502 ,-5.989048305002049  ,-31.167220054321426 ,  4.736364906630071  , 10.389072384260988  ,  8.20362573045797   ,-7.352697972835182e-06  ,-1.919759301622689e-06  ,5.262461784562428e-07   ,      0.0 ,      0.0 ,      0.0 ,-1.9048602253927647e-06 ,-7.367597456888522e-06  ,      0.0 ,-9.272456784736328e-06  ,3.880855007099783e-06  ,0.06867089429702926  ,0.011035090628627373    ,-2.0445198627487975e-08 ,-2.0705276371983065e-11 ,3.188714834462217e-08  ,105.60413157468578     ,0.0 ,75.33175472015172     ,2.038370353059043       ,        0.0 ,        0.0 , 0.0
 0.0 ,0.0 ,           0.0 ,            0.0 ,            0.0 ,            0.0 ,              0.0 ,                   0.0 , 534.0 ,54.6875  ,-0.78125  ,           0.0 ,           0.0 ,       0.0 ,178.8894       ,-18.67019   ,0.002840522      ,0.000362706      ,                 0.0 ,             0.0 ,             0.0 ,                 0.0 ,                 0.0 ,        0.0 ,2.2690017277368546     ,            0.0 ,            0.0 ,            0.0 ,              0.0 ,                   0.0 ,  0.0 ,0.0 ,1232.3377902208422   ,1.0                ,0.0 ,-17.038395399683175 ,-18.90066105144882  ,0.2865016407757847      ,-11.063343246025436 ,          0.0 ,          0.0 ,-15.538025397932955 ,-20.40103222488343  ,-11.063343246025436 ,-47.00240237222556  ,  4.888619765919073  , 15.667466813791574 ,  8.467338698290241  ,-12.04034121219902    ,-13.902612698912355 ,0.2865016407757847      ,-6.065291513950886  ,          0.0 ,          0.0 ,-10.539973472773317  ,-15.40298161002245  ,-6.065291513950886  ,-32.00825128348422  ,  4.888619765919073  , 10.669415467887191  ,  8.467338698290241  ,-4.599303886600954e-06  ,-6.935159426044126e-07  ,2.4181107272743453e-07  ,      0.0 ,      0.0 ,      0.0 ,-6.85083342711926e-07   ,-4.607737024451762e-06  ,      0.0 ,-5.292819829205366e-06  ,2.5158993048290864e-06 ,0.12151325882015723  ,0.02398620315581885     ,-4.021166484327909e-08  ,-8.914678176769532e-11  ,9.273972175837775e-09  ,17.7586579486836       ,0.0 ,162.41083242142196    ,4.4125278897688744      ,        0.0 ,        0.0 , 0.0
 0.0 ,0.0 ,           0.0 ,            0.0 ,            0.0 ,            0.0 ,              0.0 ,                   0.0 , 535.0 ,52.73438 ,-0.789062 ,           0.0 ,           0.0 ,       0.0 ,178.8484       ,-18.6739    ,0.0009636273     ,-0.0002315831    ,                 0.0 ,             0.0 ,             0.0 ,                 0.0 ,                 0.0 ,        0.0 ,0.1183400512900782     ,            0.0 ,            0.0 ,            0.0 ,              0.0 ,                   0.0 ,  0.0 ,0.0 ,1230.6762112667902   ,1.0                ,0.0 ,-17.96194363032123  ,-19.12293255697554  ,0.20045100771112268     ,-11.235403911729408 ,          0.0 ,          0.0 ,-15.761117429677878 ,-21.32375994101941  ,-11.235403911729408 ,-48.32027825910622  ,  5.225269063542571  , 16.10676081970272  ,  9.050432692567426  ,-12.963912119363856   ,-14.12490218104007  ,0.20045100771112268     ,-6.237373619113056  ,          0.0 ,          0.0 ,-10.7630857104227    ,-16.32572885006223  ,-6.237373619113056  ,-33.326194759839055 ,  5.225269063542571  , 11.10872968708598   ,  9.050432692567426  ,-6.482317723118666e-07  ,1.736061569831089e-07   ,-6.037801722059796e-08  ,      0.0 ,      0.0 ,      0.0 ,1.7471358318308147e-07  ,-6.49339198511839e-07   ,      0.0 ,-4.7462561532875756e-07 ,4.342098843320675e-07  ,0.13559837334758734  ,0.024107274809271363    ,-3.375769158604311e-08  ,-1.7776667370627556e-10 ,9.366706181449184e-09  ,17.936233575508847     ,0.0 ,161.16161167705974    ,4.406651501105275       ,        0.0 ,        0.0 , 0.0
 0.0 ,0.0 ,           0.0 ,            0.0 ,            0.0 ,            0.0 ,              0.0 ,                   0.0 , 536.0 ,50.78125 ,-0.796875 ,           0.0 ,           0.0 ,       0.0 ,178.8063       ,-18.67751   ,0.0001212397     ,-7.697157e-05    ,                 0.0 ,             0.0 ,             0.0 ,                 0.0 ,                 0.0 ,        0.0 ,1.53017237955799       ,            0.0 ,            0.0 ,            0.0 ,              0.0 ,                   0.0 ,  0.0 ,0.0 ,1226.0422583595346   ,1.0                ,0.0 ,-18.407795652674714 ,-19.152687885741674 ,0.14367032876447244     ,-11.387173801382028 ,          0.0 ,          0.0 ,-15.816903614456724 ,-21.74358460866836  ,-11.387173801382028 ,-48.94765590494775  ,  5.3261253684990475 , 16.315884571811495 ,  9.225120823867414  ,-13.40976077578304    ,-14.1546536624254   ,0.14367032876447244     ,-6.389138207065022  ,          0.0 ,          0.0 ,-10.818865766776515  ,-16.74554848417897  ,-6.389138207065022  ,-33.95355471138371  ,  5.3261253684990475 , 11.317851630504808  ,  9.225120823867414  ,-3.518358403743441e-06  ,1.9465878985313685e-07  ,-1.3385294629760885e-07 ,      0.0 ,      0.0 ,      0.0 ,1.975139981791476e-07   ,-3.521213560537656e-06  ,      0.0 ,-3.3236995810973433e-06 ,2.1000196960636025e-06 ,0.12324698351009929  ,0.015198040804223335    ,-2.495062850309715e-08  ,-1.1442468234486124e-10 ,5.477122485200256e-08  ,85.79022709560428      ,0.0 ,93.4389429542037      ,2.656552417101579       ,        0.0 ,        0.0 , 0.0
 0.0 ,0.0 ,           0.0 ,            0.0 ,            0.0 ,            0.0 ,              0.0 ,                   0.0 , 537.0 ,48.82813 ,-0.804688 ,           0.0 ,           0.0 ,       0.0 ,178.7631       ,-18.681     ,-0.0009910449    ,0.0001162337     ,                 0.0 ,             0.0 ,             0.0 ,                 0.0 ,                 0.0 ,        0.0 ,1.5787128274382582     ,            0.0 ,            0.0 ,            0.0 ,              0.0 ,                   0.0 ,  0.0 ,0.0 ,1223.7680004630465   ,1.0                ,0.0 ,-18.29985037960707  ,-19.368124460326925 ,-0.10493143466750386    ,-11.439248225483391 ,          0.0 ,          0.0 ,-15.94918463206564  ,-21.71879893781106  ,-11.439248225483391 ,-49.107230216336475 ,  5.305087977086647  , 16.369072558740626 ,  9.188681936581991  ,-13.301825289683096   ,-14.37010049356808  ,-0.10493143466750386    ,-6.441222512736006  ,          0.0 ,          0.0 ,-10.951156697398465  ,-16.720772426599915 ,-6.441222512736006  ,-34.11314847596524  ,  5.305087977086647  , 11.371050412500836  ,  9.188681936581991  ,-3.148269470696811e-06  ,2.0318640954742758e-07  ,5.202975035193464e-08   ,      0.0 ,      0.0 ,      0.0 ,2.051482560031169e-07   ,-3.1502314002427227e-06 ,      0.0 ,-2.945083160208881e-06  ,1.8882690965391266e-06 ,0.07198281836118028  ,0.004190255805896357    ,-2.6397874158183117e-08 ,1.7631951409767617e-11  ,6.327786490621096e-08  ,159.7066582565061      ,0.0 ,19.236808507823948    ,0.6346829377150192      ,        0.0 ,        0.0 , 0.0
 0.0 ,0.0 ,           0.0 ,            0.0 ,            0.0 ,            0.0 ,              0.0 ,                   0.0 , 538.0 ,46.875   ,-0.8125   ,           0.0 ,           0.0 ,       0.0 ,178.7185       ,-18.68435   ,-0.001926656     ,8.106446e-05     ,                 0.0 ,             0.0 ,             0.0 ,                 0.0 ,                 0.0 ,        0.0 ,0.734396879459716      ,            0.0 ,            0.0 ,            0.0 ,              0.0 ,                   0.0 ,  0.0 ,0.0 ,1222.0126502023447   ,1.0                ,0.0 ,-17.87174483432848  ,-19.55068569012036  ,-0.2254235854054426     ,-11.467362226222228 ,          0.0 ,          0.0 ,-16.047279444097292 ,-21.3751502424825   ,-11.467362226222228 ,-48.88978580064101  ,  5.158903248863663  , 16.296595973955412 ,  8.935483342472786  ,-12.873697120951272   ,-14.55263758280441  ,-0.2254235854054426     ,-6.469316525287557  ,          0.0 ,          0.0 ,-11.049230406325842  ,-16.37710469136858  ,-6.469316525287557  ,-33.89565325199611  ,  5.158903248863663  , 11.298550809537504  ,  8.935483342472786  ,-3.809922065492572e-06  ,-5.618302395179389e-07  ,-4.176192751616775e-07  ,      0.0 ,      0.0 ,      0.0 ,-5.471156338525332e-07  ,-3.824636671157978e-06  ,      0.0 ,-4.371752305010511e-06  ,2.1032528054563734e-06 ,0.08010393647774791  ,0.012912435037400357    ,-2.0909899352199695e-08 ,-7.528172671754581e-12  ,3.0490845856294205e-08 ,91.5824087272765       ,0.0 ,88.34035718305184     ,2.3877554128285947      ,        0.0 ,        0.0 , 0.0
 0.0 ,0.0 ,           0.0 ,            0.0 ,            0.0 ,            0.0 ,              0.0 ,                   0.0 , 539.0 ,44.92188 ,-0.820312 ,           0.0 ,           0.0 ,       0.0 ,178.6721       ,-18.68752   ,-0.002688511     ,3.763107e-06     ,                 0.0 ,             0.0 ,             0.0 ,                 0.0 ,                 0.0 ,        0.0 ,1.8317028018499246     ,            0.0 ,            0.0 ,            0.0 ,              0.0 ,                   0.0 ,  0.0 ,0.0 ,1219.6331506977292   ,1.0                ,0.0 ,-17.267077306904607 ,-19.704715974470208 ,-0.299291340025965      ,-11.495747687873461 ,          0.0 ,          0.0 ,-16.034921079864212 ,-20.936873111036352 ,-11.495747687873461 ,-48.467543029280236 ,  5.001348256656842  , 16.15584971351121  ,  8.66258879269059   ,-12.269038399479545   ,-14.70667288681321  ,-0.299291340025965      ,-6.497706639725387  ,          0.0 ,          0.0 ,-11.03687723868565   ,-15.938833566943263 ,-6.497706639725387  ,-33.47341886871823  ,  5.001348256656842  , 11.15780557357395   ,  8.66258879269059   ,-6.23317069927553e-06   ,-1.8648246578419697e-06 ,-5.573198653501341e-07  ,      0.0 ,      0.0 ,      0.0 ,-1.8465226783750644e-06 ,-6.25147315940628e-06   ,      0.0 ,-8.097997279772878e-06  ,3.215608894770462e-06  ,0.11697330718960874  ,0.023636568806218027    ,-7.365878133001948e-08  ,-2.221047090973579e-11  ,7.707071893866585e-09  ,19.591116584582966     ,0.0 ,160.1938571116877     ,4.350270490247183       ,        0.0 ,        0.0 , 0.0
 0.0 ,0.0 ,           0.0 ,            0.0 ,            0.0 ,            0.0 ,              0.0 ,                   0.0 , 540.0 ,42.96875 ,-0.828125 ,           0.0 ,           0.0 ,       0.0 ,178.6233       ,-18.69046   ,-0.003206677     ,-6.387848e-06    ,                 0.0 ,             0.0 ,             0.0 ,                 0.0 ,                 0.0 ,        0.0 ,1.2892965957966478     ,            0.0 ,            0.0 ,            0.0 ,              0.0 ,                   0.0 ,  0.0 ,0.0 ,1217.565962586306    ,1.0                ,0.0 ,-16.51463116937395  ,-19.87426711932635  ,-0.35792528943143376    ,-11.327346272118687 ,          0.0 ,          0.0 ,-15.992017183070653 ,-20.396884966506654 ,-11.327346272118687 ,-47.71624250497193  ,  4.92258533046428   , 15.905416328839607 ,  8.526168210301115  ,-11.516601500341556   ,-14.876233340554007 ,-0.35792528943143376    ,-6.329313845191654  ,          0.0 ,          0.0 ,-10.993984136040057  ,-15.398850801646613 ,-6.329313845191654  ,-32.72215023151474  ,  4.92258533046428   , 10.907383185017906  ,  8.526168210301115  ,-3.5972410009271145e-06 ,-8.59781687461771e-07   ,-4.2497108800813226e-07 ,      0.0 ,      0.0 ,      0.0 ,-8.393064726223927e-07  ,-3.6177167328876874e-06 ,      0.0 ,-4.457024363773183e-06  ,1.9376200733193794e-06 ,0.15444170969384896  ,0.028001686762530918    ,-6.841315010065084e-08  ,-4.0100449223786245e-10 ,0.0                    ,6.841799577769898e-08  ,0.0 ,179.12882486321882    ,4.998031640726067       ,        0.0 ,        0.0 , 0.0
 0.0 ,0.0 ,           0.0 ,            0.0 ,            0.0 ,            0.0 ,              0.0 ,                   0.0 , 541.0 ,41.01563 ,-0.835938 ,           0.0 ,           0.0 ,       0.0 ,178.5717       ,-18.6931    ,-0.003585951     ,-1.767131e-05    ,                 0.0 ,             0.0 ,             0.0 ,                 0.0 ,                 0.0 ,        0.0 ,0.1325591282904824     ,            0.0 ,            0.0 ,            0.0 ,              0.0 ,                   0.0 ,  0.0 ,0.0 ,1215.559028562233    ,1.0                ,0.0 ,-15.66577656503037  ,-20.03746039658835  ,-0.37690457800825       ,-11.14400023944865  ,          0.0 ,          0.0 ,-15.552304978487019 ,-20.150933308722983 ,-11.14400023944865  ,-46.847236258326035 ,  4.894215628364995  , 15.61574541944201  ,  8.4770302065161    ,-10.66775187307363    ,-15.039434480781312 ,-0.37690457800825       ,-6.145973635568717  ,          0.0 ,          0.0 ,-10.554279828379867  ,-15.152907392915944 ,-6.145973635568717  ,-31.85316792055192  ,  4.894215628364995  , 10.617720727485269  ,  8.4770302065161    ,-5.574402974697023e-07  ,1.3752691418229652e-07  ,-2.5476180956501426e-07 ,      0.0 ,      0.0 ,      0.0 ,1.6013885028608698e-07  ,-5.800523661326211e-07  ,      0.0 ,-4.1991338328740585e-07 ,3.894414862307595e-07  ,0.06214112158202967  ,0.010470319591970553    ,-1.1095485243179597e-08 ,-2.838545965883998e-10  ,2.1494292447099268e-08 ,108.88961793795346     ,0.0 ,69.96869871162252     ,1.913533792547621       ,        0.0 ,        0.0 , 0.0
 0.0 ,0.0 ,           0.0 ,            0.0 ,            0.0 ,            0.0 ,              0.0 ,                   0.0 , 542.0 ,39.0625  ,-0.84375  ,           0.0 ,           0.0 ,       0.0 ,178.5161       ,-18.69536   ,-0.003877388     ,-2.077855e-05    ,                 0.0 ,             0.0 ,             0.0 ,                 0.0 ,                 0.0 ,        0.0 ,1.592041947455428      ,            0.0 ,            0.0 ,            0.0 ,              0.0 ,                   0.0 ,  0.0 ,0.0 ,1213.3732180294387   ,1.0                ,0.0 ,-14.934272768605911 ,-20.183684667456127 ,-0.36734603965115564    ,-11.117667712660158 ,          0.0 ,          0.0 ,-14.897827767768817 ,-20.22012480867989  ,-11.117667712660158 ,-46.23561675033173  ,  4.861304955852038  , 15.411872419012122 ,  8.42002823935998   ,-9.936240765843017    ,-15.185650245110462 ,-0.36734603965115564    ,-6.119634580479003  ,          0.0 ,          0.0 ,-9.899797233113816   ,-15.222094157720381 ,-6.119634580479003  ,-31.241526888570228 ,  4.861304955852038  , 10.413841990437733  ,  8.42002823935998   ,-3.584365794682313e-06  ,-1.1342897718634151e-06 ,-3.522425042716667e-07  ,      0.0 ,      0.0 ,      0.0 ,-1.1018345441523013e-06 ,-3.6168211565513764e-06 ,      0.0 ,-4.718655566545729e-06  ,1.9167381759171443e-06 ,0.12007834409845866  ,0.017599669892225587    ,-6.691215669584235e-08  ,-4.638499225103378e-11  ,8.966176438778567e-09  ,69.42050416900823      ,0.0 ,109.79845583306174    ,3.0993397838425585      ,        0.0 ,        0.0 , 0.0
 0.0 ,0.0 ,           0.0 ,            0.0 ,            0.0 ,            0.0 ,              0.0 ,                   0.0 , 543.0 ,37.10938 ,-0.851562 ,           0.0 ,           0.0 ,       0.0 ,178.4554       ,-18.69711   ,-0.004114537     ,-2.666225e-05    ,                 0.0 ,             0.0 ,             0.0 ,                 0.0 ,                 0.0 ,        0.0 ,2.5926136442955996     ,            0.0 ,            0.0 ,            0.0 ,              0.0 ,                   0.0 ,  0.0 ,0.0 ,1211.1589407751721   ,1.0                ,0.0 ,-14.215432071932472 ,-20.33541088307749  ,-0.34639356904109536    ,-11.035340472944137 ,          0.0 ,          0.0 ,-14.192973140656628 ,-20.357867401097145 ,-11.035340472944137 ,-45.5861796500769   ,  4.9337176319499765 , 15.1953923778416   ,  8.545450451710735  ,-9.217403300339242    ,-15.33738000595409  ,-0.34639356904109536    ,-6.037312455593048  ,          0.0 ,          0.0 ,-9.19494489671423    ,-15.35983705162458  ,-6.037312455593048  ,-30.592093279235144 ,  4.9337176319499765 , 10.197365868974792  ,  8.545450451710735  ,-5.127434251642928e-06  ,-1.0618050570233395e-06 ,-4.980888437315726e-08  ,      0.0 ,      0.0 ,      0.0 ,-1.0614405492157147e-06 ,-5.12779861332551e-06   ,      0.0 ,-6.189239162541224e-06  ,2.7606829952118556e-06 ,0.11023734962364184  ,0.023524982839794706    ,-1.019377728693284e-07  ,-4.427504353613514e-11  ,5.099804985932179e-09  ,20.55603663174856      ,0.0 ,158.67655993910148    ,4.319421479427446       ,        0.0 ,        0.0 , 0.0
 0.0 ,0.0 ,           0.0 ,            0.0 ,            0.0 ,            0.0 ,              0.0 ,                   0.0 , 544.0 ,35.15625 ,-0.859375 ,           0.0 ,           0.0 ,       0.0 ,178.3879       ,-18.69816   ,-0.00431352      ,-3.268835e-05    ,                 0.0 ,             0.0 ,             0.0 ,                 0.0 ,                 0.0 ,        0.0 ,1.8864522856396344     ,            0.0 ,            0.0 ,            0.0 ,              0.0 ,                   0.0 ,  0.0 ,0.0 ,1208.9275998380633   ,1.0                ,0.0 ,-13.452952726628054 ,-20.47508799678755  ,-0.3380950897733469     ,-10.89349084391123  ,          0.0 ,          0.0 ,-13.436027150379044 ,-20.49201463876353  ,-10.89349084391123  ,-44.8215313402314   ,  5.081821665839893  , 14.940510427485673 ,  8.801973031898303  ,-8.45490309809497     ,-15.477039083398056 ,-0.3380950897733469     ,-5.8954412153781455 ,          0.0 ,          0.0 ,-8.437979384407974   ,-15.493964171598902 ,-5.8954412153781455 ,-29.827383932753477 ,  5.081821665839893  ,  9.942462173466442  ,  8.801973031898303  ,-3.7215242393527386e-06 ,2.6433330833969115e-07  ,-3.8365939531531067e-07 ,      0.0 ,      0.0 ,      0.0 ,2.901741283490687e-07   ,-3.7473649470119816e-06 ,      0.0 ,-3.4571905746388306e-06 ,2.2637128239250795e-06 ,0.16455531716530422  ,0.027868120519549098    ,-8.205340013978032e-08  ,-5.819418846625418e-11  ,0.0                    ,8.20534788252409e-08   ,0.0 ,180.0827379868531     ,4.99804921617893        ,        0.0 ,        0.0 , 0.0
 0.0 ,0.0 ,           0.0 ,            0.0 ,            0.0 ,            0.0 ,              0.0 ,                   0.0 , 545.0 ,33.20313 ,-0.867188 ,           0.0 ,           0.0 ,       0.0 ,178.311        ,-18.69828   ,-0.004488355     ,-3.784313e-05    ,                 0.0 ,             0.0 ,             0.0 ,                 0.0 ,                 0.0 ,        0.0 ,1.4889066735655478     ,            0.0 ,            0.0 ,            0.0 ,              0.0 ,                   0.0 ,  0.0 ,0.0 ,1206.823976107415    ,1.0                ,0.0 ,-12.726765191110747 ,-20.609200972699604 ,-0.3307195471656312     ,-10.7956347752277   ,          0.0 ,          0.0 ,-12.712791128405879 ,-20.62317689529251  ,-10.7956347752277   ,-44.13159790167513  ,  5.263781062064656  , 14.710535108730644 ,  9.117136259594819  ,-7.728709320373029    ,-15.611147120145226 ,-0.3307195471656312     ,-5.797578904489981  ,          0.0 ,          0.0 ,-7.714735140739093   ,-15.625119908621969 ,-5.797578904489981  ,-29.137429228916144 ,  5.263781062064656  ,  9.712479237992925  ,  9.117136259594819  ,-2.7341828985691104e-06 ,3.762302418980468e-07   ,-6.574190811241486e-07  ,      0.0 ,      0.0 ,      0.0 ,4.6261360185607637e-07  ,-2.8205663352409513e-06 ,      0.0 ,-2.357952351833402e-06  ,1.7829964038999538e-06 ,0.1165292554806585   ,0.01457392115848881     ,-2.6572424014780435e-08 ,7.800825522551405e-12   ,3.572719740547391e-08  ,90.18240498443954      ,0.0 ,90.18641222724543     ,2.554419996446926       ,        0.0 ,        0.0 , 0.0
 0.0 ,0.0 ,           0.0 ,            0.0 ,            0.0 ,            0.0 ,              0.0 ,                   0.0 , 546.0 ,31.25    ,-0.875    ,           0.0 ,           0.0 ,       0.0 ,178.2212       ,-18.69712   ,-0.004640229     ,-4.417863e-05    ,                 0.0 ,             0.0 ,             0.0 ,                 0.0 ,                 0.0 ,        0.0 ,1.7184311359083764     ,            0.0 ,            0.0 ,            0.0 ,              0.0 ,                   0.0 ,  0.0 ,0.0 ,1204.7145202439315   ,1.0                ,0.0 ,-12.054477428261285 ,-20.748231874255207 ,-0.32083759270775875    ,-10.713970856156074 ,          0.0 ,          0.0 ,-12.042613651898051 ,-20.76009663006792  ,-10.713970856156074 ,-43.516673427611906 ,  5.482117728684435  , 14.505559686329729 ,  9.495307215786166  ,-7.056437391974477    ,-15.750188591459036 ,-0.32083759270775875    ,-5.715931309594001  ,          0.0 ,          0.0 ,-7.044573246120411   ,-15.762054145157423 ,-5.715931309594001  ,-28.52256213773411  ,  5.482117728684435  ,  9.50751965004292   ,  9.495307215786166  ,-2.633299967506912e-06  ,4.277792231558947e-07   ,-3.2724607407438677e-07 ,      0.0 ,      0.0 ,      0.0 ,4.365199800481413e-07   ,-2.6420406634032945e-06 ,      0.0 ,-2.205520535558821e-06  ,1.6672620987343763e-06 ,0.0828354234439233   ,0.013267499275004736    ,-4.0430108489782296e-08 ,-2.1276541765352125e-11 ,3.198383930576242e-08  ,89.49275254556314      ,0.0 ,90.34926784000976     ,2.4477250423658012      ,        0.0 ,        0.0 , 0.0
 0.0 ,0.0 ,           0.0 ,            0.0 ,            0.0 ,            0.0 ,              0.0 ,                   0.0 , 547.0 ,29.29688 ,-0.882812 ,           0.0 ,           0.0 ,       0.0 ,178.1137       ,-18.69418   ,-0.004761474     ,-5.496282e-05    ,                 0.0 ,             0.0 ,             0.0 ,                 0.0 ,                 0.0 ,        0.0 ,2.696164568994667      ,            0.0 ,            0.0 ,            0.0 ,              0.0 ,                   0.0 ,  0.0 ,0.0 ,1202.5993165068999   ,1.0                ,0.0 ,-11.35288475643213  ,-20.886552803863463 ,-0.3215126892731762     ,-10.626210255115797 ,          0.0 ,          0.0 ,-11.341986787314102 ,-20.89745636533771  ,-10.626210255115797 ,-42.86564587446027  ,  5.743002739734334  , 14.288549558853434 ,  9.947173344801822  ,-6.354842397358475    ,-15.888511305938717 ,-0.3215126892731762     ,-5.628168263045271  ,          0.0 ,          0.0 ,-6.343944428240446   ,-15.89940878451717  ,-5.628168263045271  ,-27.871524368388332 ,  5.743002739734334  ,  9.290507199779777  ,  9.947173344801822  ,-1.4636520701798391e-06 ,3.1472586438378167e-07  ,-3.517059046759504e-07  ,      0.0 ,      0.0 ,      0.0 ,3.395045932531895e-07   ,-1.4884307256486205e-06 ,      0.0 ,-1.148926132395431e-06  ,9.723168095254733e-07  ,0.0690550899032887   ,0.009942757000600573    ,-3.345180494534028e-08  ,-1.5944788695097705e-11 ,3.284530220155096e-08  ,112.27462863188454     ,0.0 ,67.70837104795355     ,1.8343422072367903      ,        0.0 ,        0.0 , 0.0
 0.0 ,0.0 ,           0.0 ,            0.0 ,            0.0 ,            0.0 ,              0.0 ,                   0.0 , 548.0 ,27.34375 ,-0.890625 ,           0.0 ,           0.0 ,       0.0 ,177.9813       ,-18.68876   ,-0.005086273     ,-0.0002950486    ,                 0.0 ,             0.0 ,             0.0 ,                 0.0 ,                 0.0 ,        0.0 ,4.0                    ,            0.0 ,            0.0 ,            0.0 ,              0.0 ,                   0.0 ,  0.0 ,0.0 ,1200.4773045643374   ,1.0                ,0.0 ,-10.666817699444898 ,-21.027124340987285 ,-0.32899716403968954    ,-10.547331455983635 ,          0.0 ,          0.0 ,-10.656142708099187 ,-21.03780283343197  ,-10.547331455983635 ,-42.241275064741274 ,  6.028228914618073  , 14.080425618036633 , 10.441198950412     ,-5.668762737868279    ,-16.029069362971335 ,-0.32899716403968954    ,-5.549276002993391  ,          0.0 ,          0.0 ,-5.6580858137490475  ,-16.039744481280287 ,-5.549276002993391  ,-27.24710387383558  ,  6.028228914618073  ,  9.08236921510012   , 10.441198950412     ,-4.98008203113457e-07   ,-6.310638615241844e-08  ,-7.898127663777955e-07  ,      0.0 ,      0.0 ,      0.0 ,2.8608676684151443e-07  ,-8.472012552121973e-07  ,      0.0 ,-5.611144975413358e-07  ,5.929250934432502e-07  ,0.08961621438376156  ,0.013286374030495481    ,-2.4147459560989288e-08 ,-3.5971452718418005e-11 ,3.018192090086092e-08  ,89.5612310316314       ,0.0 ,90.84439337002273     ,2.456169816735131       ,        0.0 ,        0.0 , 0.0
 0.0 ,0.0 ,           0.0 ,            0.0 ,            0.0 ,            0.0 ,              0.0 ,                   0.0 , 549.0 ,25.39063 ,-0.898438 ,           0.0 ,           0.0 ,       0.0 ,177.8143       ,-18.67987   ,-0.005652608     ,-0.0002247091    ,                 0.0 ,             0.0 ,             0.0 ,                 0.0 ,                 0.0 ,        0.0 ,3.7083520333489735     ,            0.0 ,            0.0 ,            0.0 ,              0.0 ,                   0.0 ,  0.0 ,0.0 ,1198.3463961111486   ,1.0                ,0.0 ,-10.002857791295117 ,-21.169970961771213 ,-0.3275321927262117     ,-10.477023654696318 ,          0.0 ,          0.0 ,-9.992872006151995  ,-21.179955400340692 ,-10.477023654696318 ,-41.64985509308316  ,  6.329279441274473  , 13.883283408655345 , 10.96263365552021   ,-5.004803904931002    ,-16.171915793112877 ,-0.3275321927262117     ,-5.478969701992389  ,          0.0 ,          0.0 ,-4.994818151927589   ,-16.181901940034386 ,-5.478969701992389  ,-26.655687987122807 ,  6.329279441274473  ,  8.885231275969637  , 10.96263365552021   ,1.536940834901192e-07   ,-6.743956962250738e-07  ,-6.864787940501342e-07  ,      0.0 ,      0.0 ,      0.0 ,5.877673662366413e-07   ,-1.108469126690884e-06  ,      0.0 ,-5.207015253518274e-07  ,8.672820764323762e-07  ,0.1446646137027485   ,0.023093772826017385    ,-4.178440793030296e-08  ,-7.495999648891217e-11  ,1.828386308370116e-08  ,22.420627049123773     ,0.0 ,157.91041269906844    ,4.269318649613953       ,        0.0 ,        0.0 , 0.0
 0.0 ,0.0 ,           0.0 ,            0.0 ,            0.0 ,            0.0 ,              0.0 ,                   0.0 , 550.0 ,23.4375  ,-0.90625  ,           0.0 ,           0.0 ,       0.0 ,177.5988       ,-18.66613   ,-0.006119212     ,-0.0002085321    ,                 0.0 ,             0.0 ,             0.0 ,                 0.0 ,                 0.0 ,        0.0 ,1.9291209510269964     ,            0.0 ,            0.0 ,            0.0 ,              0.0 ,                   0.0 ,  0.0 ,0.0 ,1196.201672194099    ,0.9999999999999999 ,0.0 ,-9.312704758937624  ,-21.302091091584586 ,-0.32512256665130634    ,-10.397745453742715 ,          0.0 ,          0.0 ,-9.30346365113202   ,-21.31133148162324  ,-10.397745453742715 ,-41.012537237264254 ,  6.6530015305572325 , 13.670846936892623 , 11.523335681619422  ,-4.314663251439303    ,-16.3040478610543   ,-0.32512256665130634    ,-5.399704062857069  ,          0.0 ,          0.0 ,-4.3054223813817725  ,-16.313288968859908 ,-5.399704062857069  ,-26.018416543078168 ,  6.6530015305572325 ,  8.672805546006977  , 11.523335681619422  ,1.6332567812194617e-06  ,-1.645354430340422e-06  ,-2.8977354842286673e-07 ,      0.0 ,      0.0 ,      0.0 ,1.6410350750908603e-06  ,-1.653132831876863e-06  ,      0.0 ,-1.2097747838371177e-08 ,1.648866536603463e-06  ,0.1353947633615281   ,0.014566670922497048    ,1.3272321125335867e-08  ,-1.952717757579815e-08  ,2.107788491000464e-08  ,91.29544113233764      ,0.0 ,88.70905799435351     ,2.5310077034172282      ,        0.0 ,        0.0 , 0.0
 0.0 ,0.0 ,           0.0 ,            0.0 ,            0.0 ,            0.0 ,              0.0 ,                   0.0 , 551.0 ,21.48438 ,-0.914062 ,           0.0 ,           0.0 ,       0.0 ,177.3157       ,-18.64564   ,-0.006522652     ,-0.0001746074    ,                 0.0 ,             0.0 ,             0.0 ,                 0.0 ,                 0.0 ,        0.0 ,2.3360256778235042     ,            0.0 ,            0.0 ,            0.0 ,              0.0 ,                   0.0 ,  0.0 ,0.0 ,1194.0315035615643   ,1.0                ,0.0 ,-8.650900904556089  ,-21.450739544649057 ,-0.3290666343720388     ,-10.328702814952324 ,          0.0 ,          0.0 ,-8.641875607941095  ,-21.459766326561738 ,-10.328702814952324 ,-40.430340773816525 ,  6.989063003668456  , 13.476781962182162 , 12.10541016475462   ,-3.6528611179967077   ,-16.452699907335635 ,-0.3290666343720388     ,-5.330662759227502  ,          0.0 ,          0.0 ,-3.6438356867989934  ,-16.461726696670716 ,-5.330662759227502  ,-25.436227351562565 ,  6.989063003668456  ,  8.478741906457337  , 12.10541016475462   ,2.3821085635977718e-06  ,-2.5514503603536714e-06 ,-2.800444944375317e-07  ,      0.0 ,      0.0 ,      0.0 ,2.3861386664839482e-06  ,-2.555480463239848e-06  ,      0.0 ,-1.6934162033203777e-07 ,2.4726378645830517e-06 ,0.11912438045841542  ,0.013384187699001028    ,-5.1592515149134806e-08 ,-9.056285781229003e-11  ,6.973278700840028e-08  ,88.39136095667573      ,0.0 ,91.53869839246079     ,2.474591598231274       ,        0.0 ,        0.0 , 0.0
 0.0 ,0.0 ,           0.0 ,            0.0 ,            0.0 ,            0.0 ,              0.0 ,                   0.0 , 552.0 ,19.53125 ,-0.921875 ,           0.0 ,           0.0 ,       0.0 ,176.9394       ,-18.61581   ,-0.006775643     ,-0.000196788     ,                 0.0 ,             0.0 ,             0.0 ,                 0.0 ,                 0.0 ,        0.0 ,3.69780747219657       ,            0.0 ,            0.0 ,            0.0 ,              0.0 ,                   0.0 ,  0.0 ,0.0 ,1191.8093384451176   ,1.0                ,0.0 ,-7.9921995642493115 ,-21.571529275019888 ,-0.34152895459359356    ,-10.252353983865579 ,          0.0 ,          0.0 ,-7.982901719065029  ,-21.580826683987517 ,-10.252353983865579 ,-39.81608518300115  ,  7.321631738531877  , 13.272027959460685 , 12.681438329335204  ,-2.994148035248862    ,-16.57347816341243  ,-0.34152895459359356    ,-5.254302314165492  ,          0.0 ,          0.0 ,-2.9848501197147597  ,-16.582776008596717 ,-5.254302314165492  ,-24.821932242956166 ,  7.321631738531877  ,  8.273976289760597  , 12.681438329335204  ,2.9651942178303766e-06  ,-3.520320795270637e-06  ,-6.251068288579223e-07  ,      0.0 ,      0.0 ,      0.0 ,3.0737144478216625e-06  ,-3.6288409799330436e-06 ,      0.0 ,-5.551266501430369e-07  ,3.3566902407962022e-06 ,0.09264510887288893  ,0.009508890089408117    ,-1.7241080630285085e-08 ,-6.434145137258276e-11  ,4.1595577802445555e-08 ,115.2131144879036      ,0.0 ,65.03474883197377     ,1.7581028120227036      ,        0.0 ,        0.0 , 0.0
 0.0 ,0.0 ,           0.0 ,            0.0 ,            0.0 ,            0.0 ,              0.0 ,                   0.0 , 553.0 ,17.57813 ,-0.929688 ,           0.0 ,           0.0 ,       0.0 ,176.437        ,-18.57339   ,-0.006930138     ,-9.299869e-05    ,                 0.0 ,             0.0 ,             0.0 ,                 0.0 ,                 0.0 ,        0.0 ,3.38928964135044       ,            0.0 ,            0.0 ,            0.0 ,              0.0 ,                   0.0 ,  0.0 ,0.0 ,1040.939346766991    ,1.0                ,0.0 ,-7.461215573792317  ,-21.662081970831128 ,-0.36776438572943526    ,-10.182805106679114 ,          0.0 ,          0.0 ,-7.4509886732677435 ,-21.672306778920607 ,-10.182805106679114 ,-39.30610207646768  ,  7.569727887768544  , 13.102035140685423 , 13.111155516544603  ,-2.4631589490602384   ,-16.664024394158037 ,-0.36776438572943526    ,-5.184745100482973  ,          0.0 ,          0.0 ,-2.4529320485356654  ,-16.674251294682612 ,-5.184745100482973  ,-24.311928937609498 ,  7.569727887768544  ,  8.103975134489282  , 13.111155516544603  ,3.364979907587485e-06   ,-3.239239351937635e-06  ,-5.296109060970553e-07  ,      0.0 ,      0.0 ,      0.0 ,3.379632206790239e-06   ,-3.2538916511403883e-06 ,      0.0 ,1.2574030869572774e-07  ,3.3231896141749843e-06 ,0.14425734860163178  ,0.010284264293939568    ,-2.9601911514645126e-08 ,-5.254918755799818e-10  ,1.2126653154541112e-07 ,118.92006950599932     ,0.0 ,60.699342303421766    ,1.766322294562604       ,        0.0 ,        0.0 , 0.0
 0.0 ,0.0 ,           0.0 ,            0.0 ,            0.0 ,            0.0 ,              0.0 ,                   0.0 , 554.0 ,15.625   ,-0.9375   ,           0.0 ,           0.0 ,       0.0 ,175.7716       ,-18.51466   ,-0.00669704      ,-0.0001323945    ,                 0.0 ,             0.0 ,             0.0 ,                 0.0 ,                 0.0 ,        0.0 ,1.2337819788747693     ,            0.0 ,            0.0 ,            0.0 ,              0.0 ,                   0.0 ,  0.0 ,0.0 ,1036.449786900881    ,0.9999999999999999 ,0.0 ,-6.908168064937861  ,-21.811395802256612 ,-0.3590233220161573     ,-10.120721736630209 ,          0.0 ,          0.0 ,-6.898521740509526  ,-21.821040029845854 ,-10.120721736630209 ,-38.840281276154684 ,  7.884408849474827  , 12.946760800669905 , 13.656197849823581  ,-1.9101417843145176   ,-16.81337032276938  ,-0.3590233220161573     ,-5.1226987101852774 ,          0.0 ,          0.0 ,-1.9004971032002542  ,-16.823016802068672 ,-5.1226987101852774 ,-23.846210051533873 ,  7.884408849474827  ,  7.948737882634644  , 13.656197849823581  ,6.086926059377078e-07   ,-1.703662839231399e-06  ,-1.2653407538561336e-07 ,      0.0 ,      0.0 ,      0.0 ,6.13650807924696e-07    ,-1.7086207784563248e-06 ,      0.0 ,-1.0949699571118129e-06 ,1.3340145304842426e-06 ,0.14909614795681034  ,0.010488276471475775    ,-7.535206887288972e-08  ,-1.6906639953394484e-09 ,3.1827360456416116e-07 ,116.40356286558746     ,0.0 ,61.634302402745945    ,1.797420082790205       ,        0.0 ,        0.0 , 0.0
 0.0 ,0.0 ,           0.0 ,            0.0 ,            0.0 ,            0.0 ,              0.0 ,                   0.0 , 555.0 ,13.67188 ,-0.945312 ,           0.0 ,           0.0 ,       0.0 ,174.91         ,-18.43631   ,-0.005649005     ,0.0002489299     ,                 0.0 ,             0.0 ,             0.0 ,                 0.0 ,                 0.0 ,        0.0 ,2.062252384935526      ,            0.0 ,            0.0 ,            0.0 ,              0.0 ,                   0.0 ,  0.0 ,0.0 ,1029.3041819305881   ,1.0                ,0.0 ,-6.26641257446594   ,-21.713736132721685 ,-0.37534590726975575    ,-9.972773536155596  ,          0.0 ,          0.0 ,-6.256304028121567  ,-21.723843887625986 ,-9.972773536155596  ,-37.95291959138351  ,  8.113460421928238  , 12.650972120608913 , 14.052926770388252  ,-1.2683500306854925   ,-16.715670603916838 ,-0.37534590726975575    ,-4.9747057271772235 ,          0.0 ,          0.0 ,-1.2582393748119467  ,-16.725779780418154 ,-4.9747057271772235 ,-22.958725079331614 ,  8.113460421928238  ,  7.652908306016158  , 14.052926770388252  ,2.5165471552192096e-06  ,-4.489344605582096e-06  ,-1.938124303684655e-07  ,      0.0 ,      0.0 ,      0.0 ,2.518422820258774e-06   ,-4.4912199724863455e-06 ,      0.0 ,-1.9727975814501383e-06 ,3.7368751814426863e-06 ,0.027805691037022587 ,-7.805865029454275e-08  ,-2.7266148315116347e-09 ,0.0                     ,7.812208364966584e-08  ,179.9780414190576      ,0.0 ,0.0                   ,0.0                     ,        0.0 ,        0.0 , 0.0
 0.0 ,0.0 ,           0.0 ,            0.0 ,            0.0 ,            0.0 ,              0.0 ,                   0.0 , 556.0 ,11.71875 ,-0.953125 ,           0.0 ,           0.0 ,       0.0 ,173.8462       ,-18.33774   ,-0.005724094     ,-0.001350796     ,                 0.0 ,             0.0 ,             0.0 ,                 0.0 ,                 0.0 ,        0.0 ,2.2235968016009466     ,            0.0 ,            0.0 ,            0.0 ,              0.0 ,                   0.0 ,  0.0 ,0.0 ,1016.7244705752094   ,1.0                ,0.0 ,-5.906276921268574  ,-22.200803631724458 ,-0.26600142681682887    ,-10.10039683268604  ,          0.0 ,          0.0 ,-5.897386219174065  ,-22.20969292976421  ,-10.10039683268604  ,-38.20748205995143  ,  8.507788771899953  , 12.73582858716982  , 14.735924028602797  ,-0.9082136732264043   ,-17.202741936488685 ,-0.26600142681682887    ,-5.102334792377917  ,          0.0 ,          0.0 ,-0.8993225397914557  ,-17.211632889465676 ,-5.102334792377917  ,-23.213287806157368 ,  8.507788771899953  ,  7.737762398119655  , 14.735924028602797  ,2.100124372845182e-06   ,-4.4862023549721365e-06 ,-1.0219399506987469e-07 ,      0.0 ,      0.0 ,      0.0 ,2.102960653158956e-06   ,-4.489038912135969e-06  ,      0.0 ,-2.386078236970325e-06  ,3.618197750288237e-06  ,0.16637087126447941  ,0.011235009700032338    ,-1.7517994032657928e-08 ,-1.0266103869295251e-09 ,5.70169756664948e-08   ,112.86837048045581     ,0.0 ,67.03892236736547     ,1.94019510184891        ,        0.0 ,        0.0 , 0.0
 0.0 ,0.0 ,           0.0 ,            0.0 ,            0.0 ,            0.0 ,              0.0 ,                   0.0 , 557.0 ,9.765625 ,-0.960938 ,           0.0 ,           0.0 ,       0.0 ,172.6066       ,-18.2216    ,-0.007048436     ,0.0001362748     ,                 0.0 ,             0.0 ,             0.0 ,                 0.0 ,                 0.0 ,        0.0 ,2.77122231085452       ,            0.0 ,            0.0 ,            0.0 ,              0.0 ,                   0.0 ,  0.0 ,0.0 ,1134.669719227596    ,1.0                ,0.0 ,-4.782199368224798  ,-21.864685931704805 ,-0.5713774612417009     ,-9.721267149907463  ,          0.0 ,          0.0 ,-4.7395411383088035 ,-21.907341331826817 ,-9.721267149907463  ,-36.36815073826192  ,  8.901766069985843  , 12.12271629631183  , 15.418311028926212  ,0.21585281826903224   ,-16.866632160539638 ,-0.5713774612417009     ,-4.72321491099448   ,          0.0 ,          0.0 ,0.2585132230591256   ,-16.909289909554786 ,-4.72321491099448   ,-21.373991274910736 ,  8.901766069985843  ,  7.124663770045647  , 15.418311028926212  ,1.4385832650720866e-07  ,-4.3967285696534295e-06 ,-2.379090887986548e-07  ,      0.0 ,      0.0 ,      0.0 ,1.6106587453829432e-07  ,-4.413936275451598e-06  ,      0.0 ,-4.252870340258855e-06  ,2.7031403731402977e-06 ,0.24618821287382242  ,0.017900561811325273    ,-5.017909870381353e-08  ,-3.117091329627248e-09  ,3.2286949414617006e-08 ,67.90377341268244      ,0.0 ,111.89072878384681    ,3.1587376319192852      ,        0.0 ,        0.0 , 0.0
 0.0 ,0.0 ,           0.0 ,            0.0 ,            0.0 ,            0.0 ,              0.0 ,                   0.0 , 558.0 ,7.8125   ,-0.96875  ,           0.0 ,           0.0 ,       0.0 ,171.3625       ,-18.105     ,-0.00255479      ,-0.002250493     ,                 0.0 ,             0.0 ,             0.0 ,                 0.0 ,                 0.0 ,        0.0 ,1.8733942338633822     ,            0.0 ,            0.0 ,            0.0 ,              0.0 ,                   0.0 ,  0.0 ,0.0 ,1024.8116814972798   ,1.0                ,0.0 ,-4.6654935236574255 ,-22.201443829389987 ,-0.575890574188682      ,-9.831895151261659  ,          0.0 ,          0.0 ,-4.628539803282104  ,-22.238395088199326 ,-9.831895151261659  ,-36.69882918601575  ,  9.107921142665987  , 12.232942226530897 , 15.775378628273998  ,0.3324761339393798    ,-17.203473272267438 ,-0.575890574188682      ,-4.833922778008958  ,          0.0 ,          0.0 ,0.3694304780013682   ,-17.240426865258915 ,-4.833922778008958  ,-21.704920567922514 ,  9.107921142665987  ,  7.234973676236805  , 15.775378628273998  ,-5.277715609628483e-07  ,-2.8457497920782924e-06 ,-3.4651455265286377e-07 ,      0.0 ,      0.0 ,      0.0 ,-5.083188672920629e-07  ,-2.8652026485369757e-06 ,      0.0 ,-3.3735215158290384e-06 ,1.5292752706326673e-06 ,0.194096660850361    ,0.014695342556661587    ,-1.1370089632979526e-07 ,-1.5010981304179455e-09 ,5.754854701436035e-07  ,76.21347888671724      ,0.0 ,100.1496104809813     ,2.71213644447139        ,        0.0 ,        0.0 , 0.0
 0.0 ,0.0 ,           0.0 ,            0.0 ,            0.0 ,            0.0 ,              0.0 ,                   0.0 , 559.0 ,5.859375 ,-0.976562 ,           0.0 ,           0.0 ,       0.0 ,170.2786       ,-18.00442   ,-0.005363717     ,-0.001442411     ,                 0.0 ,             0.0 ,             0.0 ,                 0.0 ,                 0.0 ,        0.0 ,1.8643092849465022     ,            0.0 ,            0.0 ,            0.0 ,              0.0 ,                   0.0 ,  0.0 ,0.0 ,1021.7981948947817   ,1.0                ,0.0 ,-4.530442211670012  ,-22.276771763076734 ,-0.03015957253756603    ,-9.840593325612506  ,          0.0 ,          0.0 ,-4.528439556671692  ,-22.27877678935764  ,-9.840593325612506  ,-36.64780752525527  ,  9.17646326277534   , 12.21593545119407  , 15.894096136760073  ,0.46752648874585434   ,-17.278805965981803 ,-0.03015957253756603    ,-4.8426222165883015 ,          0.0 ,          0.0 ,0.46952985878727826  ,-17.28080903592602  ,-4.8426222165883015 ,-21.653903112935666 ,  9.17646326277534   ,  7.217967497166412  , 15.894096136760073  ,-7.642214795473385e-07  ,-2.7212907547463138e-06 ,9.21000183416794e-08    ,      0.0 ,      0.0 ,      0.0 ,-7.61222610981073e-07   ,-2.7242896233125794e-06 ,      0.0 ,-3.4855122342936524e-06 ,1.4059756839696242e-06 ,0.1701691245096325   ,0.01237412416982023     ,-9.433903395800043e-08  ,-1.927973468429527e-09  ,5.854252141165668e-07  ,91.94795256192283      ,0.0 ,84.37334747405761     ,2.2843119392606455      ,        0.0 ,        0.0 , 0.0
 0.0 ,0.0 ,           0.0 ,            0.0 ,            0.0 ,            0.0 ,              0.0 ,                   0.0 , 560.0 ,3.90625  ,-0.984375 ,           0.0 ,           0.0 ,       0.0 ,169.5826       ,-17.94263   ,-0.005071279     ,-0.0003289262    ,                 0.0 ,             0.0 ,             0.0 ,                 0.0 ,                 0.0 ,        0.0 ,2.4890040419242205     ,            0.0 ,            0.0 ,            0.0 ,              0.0 ,                   0.0 ,  0.0 ,0.0 ,1167.0915893829517   ,1.0                ,0.0 ,-3.8896638233357295 ,-22.58642158871557  ,-0.21711744462402938    ,-9.827734177668262  ,          0.0 ,          0.0 ,-3.8860621412087046 ,-22.59002150861116  ,-9.827734177668262  ,-36.30381346424473  ,  9.661800169120509  , 12.10127361029977  , 16.734729232283254  ,1.10831674892506      ,-17.588441567351943 ,-0.21711744462402938    ,-4.829754150499409  ,          0.0 ,          0.0 ,1.1119164199252407   ,-17.59204159510887  ,-4.829754150499409  ,-21.309875800400842 ,  9.661800169120509  ,  7.103293107731694  , 16.734729232283254  ,-1.2096543308749742e-06 ,-3.525521970579896e-06  ,-7.128186468127585e-08  ,      0.0 ,      0.0 ,      0.0 ,-1.2082620718604727e-06 ,-3.5269142295943972e-06 ,      0.0 ,-4.73517630145487e-06   ,1.7947022613588366e-06 ,0.13892047743324326  ,0.009658998305191279    ,-5.098040213001404e-08  ,-1.5049726272653692e-09 ,2.4694800833839315e-07 ,112.1556327269152      ,0.0 ,65.86168352339432     ,1.7831297976953495      ,        0.0 ,        0.0 , 0.0
 0.0 ,0.0 ,           0.0 ,            0.0 ,            0.0 ,            0.0 ,              0.0 ,                   0.0 , 561.0 ,1.953125 ,-0.992188 ,           0.0 ,           0.0 ,       0.0 ,169.3022       ,-17.92241   ,-0.00173677      ,0.0003628999     ,                 0.0 ,             0.0 ,             0.0 ,                 0.0 ,                 0.0 ,        0.0 ,2.007711530399219      ,            0.0 ,            0.0 ,            0.0 ,              0.0 ,                   0.0 ,  0.0 ,0.0 ,1160.3533816607578   ,1.0                ,0.0 ,-3.478583669284985  ,-22.945483655651177 ,-0.16163079821653964    ,-9.880963404568192  ,          0.0 ,          0.0 ,-3.476826028088017  ,-22.947236824228177 ,-9.880963404568192  ,-36.3050257143273   , 10.041164785062241  , 12.101676401391718 , 17.391804869083163  ,1.5193935008270754    ,-17.947507200375608 ,-0.16163079821653964    ,-4.882988354690694  ,          0.0 ,          0.0 ,1.521150969744641    ,-17.94926466929317  ,-4.882988354690694  ,-21.31109508803082  , 10.041164785062241  ,  7.103701317058339  , 17.391804869083163  ,8.319728874406497e-07   ,-3.897434676829651e-06  ,-6.067277010762783e-08  ,      0.0 ,      0.0 ,      0.0 ,8.329714188589802e-07   ,-3.898433208247982e-06  ,      0.0 ,-3.065461789389001e-06  ,2.670893085450184e-06  ,0.10630423377992859  ,0.00580784987723479     ,6.955518748546486e-08   ,-3.4792348719760954e-09 ,1.4070610962071781e-08 ,153.58478581548025     ,0.0 ,24.406269317214164    ,0.8416172958465352      ,        0.0 ,        0.0 , 0.0
 0.0 ,0.0 ,           0.0 ,            0.0 ,            0.0 ,            0.0 ,              0.0 ,                   0.0 , 562.0 ,-0.0     ,-1.0      ,           0.0 ,           0.0 ,       0.0 ,169.218        ,-17.9218    ,2.626348         ,3.644015e-05     ,                 0.0 ,             0.0 ,             0.0 ,                 0.0 ,                 0.0 ,        0.0 ,0.0                    ,            0.0 ,            0.0 ,            0.0 ,              0.0 ,                   0.0 ,  0.0 ,0.0 ,  63.0526890076239   ,-19.13493555082592 ,0.0 ,-150.20647096360102 ,-301.8961131095082  ,-0.9660051654729485     ,-150.84806452398357 ,          0.0 ,          0.0 ,-149.69559048054901 ,-302.40699445125637 ,-150.84806452398357 ,-602.9506491411203  , 87.8937275420447    ,200.98354996185654  ,152.23640201469016   ,-195.62452991762592   ,-347.3141746533202  ,-0.9660051654729485     ,-196.26612436533654 ,          0.0 ,          0.0 ,-195.1136501735405   ,-347.8250543585413  ,-196.26612436533654 ,-739.204823850142   , 87.8937275420447    ,246.4016094143192    ,152.23640201469016   ,-2.1993138581648397e-07 ,-1.3757231431372854e-05 ,-8.025748206091332e-07  ,      0.0 ,      0.0 ,      0.0 ,9.084547298373262e-07   ,-1.488561759416882e-05  ,      0.0 ,-1.397716300294931e-05  ,9.053272662137981e-06  ,0.5732550085034905   ,0.2946648442233249      ,-0.005997995722761869   ,-0.0033391805167947105  ,0.006388475128528773   ,-3.1676430553497203    ,0.0 ,-3.973368943820623    ,-23.19387943808092      ,        0.0 ,        0.0 , 0.0
 0.0 ,0.0 ,           0.0 ,            0.0 ,            0.0 ,            0.0 ,              0.0 ,                   0.0 , 563.0 ,-0.0     ,-2.666667 ,           0.0 ,           0.0 ,       0.0 ,152.5441       ,-17.92108   ,24.37047         ,0.0001686796     ,                 0.0 ,             0.0 ,             0.0 ,                 0.0 ,                 0.0 ,        0.0 ,0.0                    ,            0.0 ,            0.0 ,            0.0 ,              0.0 ,                   0.0 ,  0.0 ,0.0 ,  63.0526890076239   ,-19.13493555082592 ,0.0 ,-150.20647096360102 ,-301.8961131095082  ,-0.9660051654729485     ,-150.84806452398357 ,          0.0 ,          0.0 ,-149.69559048054901 ,-302.40699445125637 ,-150.84806452398357 ,-602.9506491411203  , 87.8937275420447    ,200.98354996185654  ,152.23640201469016   ,-195.62452991762592   ,-347.3141746533202  ,-0.9660051654729485     ,-196.26612436533654 ,          0.0 ,          0.0 ,-195.1136501735405   ,-347.8250543585413  ,-196.26612436533654 ,-739.204823850142   , 87.8937275420447    ,246.4016094143192    ,152.23640201469016   ,-2.1993138581648397e-07 ,-1.3757231431372854e-05 ,-8.025748206091332e-07  ,      0.0 ,      0.0 ,      0.0 ,9.084547298373262e-07   ,-1.488561759416882e-05  ,      0.0 ,-1.397716300294931e-05  ,9.053272662137981e-06  ,0.5732550085034905   ,0.2946648442233249      ,-0.005997995722761869   ,-0.0033391805167947105  ,0.006388475128528773   ,-3.1676430553497203    ,0.0 ,-3.973368943820623    ,-23.19387943808092      ,        0.0 ,        0.0 , 0.0
 0.0 ,0.0 ,           0.0 ,            0.0 ,            0.0 ,            0.0 ,              0.0 ,                   0.0 , 564.0 ,-0.0     ,-4.333333 ,           0.0 ,           0.0 ,       0.0 ,135.8636       ,-17.9197    ,49.57917         ,-1.491863e-05    ,                 0.0 ,             0.0 ,             0.0 ,                 0.0 ,                 0.0 ,        0.0 ,0.0                    ,            0.0 ,            0.0 ,            0.0 ,              0.0 ,                   0.0 ,  0.0 ,0.0 ,  63.0526890076239   ,-19.13493555082592 ,0.0 ,-150.20647096360102 ,-301.8961131095082  ,-0.9660051654729485     ,-150.84806452398357 ,          0.0 ,          0.0 ,-149.69559048054901 ,-302.40699445125637 ,-150.84806452398357 ,-602.9506491411203  , 87.8937275420447    ,200.98354996185654  ,152.23640201469016   ,-195.62452991762592   ,-347.3141746533202  ,-0.9660051654729485     ,-196.26612436533654 ,          0.0 ,          0.0 ,-195.1136501735405   ,-347.8250543585413  ,-196.26612436533654 ,-739.204823850142   , 87.8937275420447    ,246.4016094143192    ,152.23640201469016   ,-2.1993138581648397e-07 ,-1.3757231431372854e-05 ,-8.025748206091332e-07  ,      0.0 ,      0.0 ,      0.0 ,9.084547298373262e-07   ,-1.488561759416882e-05  ,      0.0 ,-1.397716300294931e-05  ,9.053272662137981e-06  ,0.5732550085034905   ,0.2946648442233249      ,-0.005997995722761869   ,-0.0033391805167947105  ,0.006388475128528773   ,-3.1676430553497203    ,0.0 ,-3.973368943820623    ,-23.19387943808092      ,        0.0 ,        0.0 , 0.0
 0.0 ,0.0 ,           0.0 ,            0.0 ,            0.0 ,            0.0 ,              0.0 ,                   0.0 , 565.0 ,1.926107 ,-9.333348 ,           0.0 ,           0.0 ,       0.0 ,85.83583       ,-17.91693   ,-0.006922228     ,-0.0005136215    ,                 0.0 ,             0.0 ,             0.0 ,                 0.0 ,                 0.0 ,        0.0 ,0.5052503753909741     ,            0.0 ,            0.0 ,            0.0 ,              0.0 ,                   0.0 ,  0.0 ,0.0 , 452.37233021500487  ,1.0                ,0.0 ,-81.30471136925985  ,-174.6605570665084  ,-0.7477076449725613     ,-86.33493210557475  ,          0.0 ,          0.0 ,-81.29815649973403  ,-174.6670668567442  ,-86.33493210557475  ,-342.30022987218734 , 52.514865933784804  ,114.10007665382497  , 90.9584140981564    ,-76.31265202091117    ,-169.66848238974404 ,-0.7477076449725613     ,-81.34287280526546  ,          0.0 ,          0.0 ,-76.30609719942474   ,-169.6750422246236  ,-81.34287280526546  ,-327.3240569366132  , 52.514865933784804  ,109.1080123703044    , 90.9584140981564    ,2.8581692585766394e-06  ,-1.449897808083958e-06  ,-2.7075833792568047e-08 ,      0.0 ,      0.0 ,      0.0 ,2.8582161342619304e-06  ,-1.4499441881267497e-06 ,      0.0 ,1.4082714456887432e-06  ,2.19210684301193e-06   ,0.5740196612721075   ,0.055731250074726374    ,1.0345952644797957e-05  ,-2.6438196664676668e-06 ,0.0                    ,1.0730808206184056e-05 ,0.0 ,91.57677845955745     ,4.99205831863218        ,        0.0 ,        0.0 , 0.0
 0.0 ,0.0 ,           0.0 ,            0.0 ,            0.0 ,            0.0 ,              0.0 ,                   0.0 , 566.0 ,3.8637   ,-9.322061 ,           0.0 ,           0.0 ,       0.0 ,86.90791       ,-18.01285   ,-0.007094527     ,-0.0002239002    ,                 0.0 ,             0.0 ,             0.0 ,                 0.0 ,                 0.0 ,        0.0 ,2.4990491370165033     ,            0.0 ,            0.0 ,            0.0 ,              0.0 ,                   0.0 ,  0.0 ,0.0 , 453.468788107279    ,1.0                ,0.0 ,-81.22716048988795  ,-174.1333486074371  ,-1.3260194066054407     ,-86.11248181324515  ,          0.0 ,          0.0 ,-81.20798876315472  ,-174.15250089632582 ,-86.11248181324515  ,-341.4730004977654  , 52.30464422246452   ,113.82431661381757  , 90.59429871048732   ,-76.23399922284307    ,-169.14018219962105 ,-1.3260194066054407     ,-81.11932551813894  ,          0.0 ,          0.0 ,-76.21483246804851   ,-169.15933448850978 ,-81.11932551813894  ,-326.4935016500167  , 52.30464422246452   ,108.83119044997389   , 90.59429871048732   ,5.598141044744962e-06   ,-3.2244947037637867e-06 ,-5.402625718798706e-07  ,      0.0 ,      0.0 ,      0.0 ,5.609153398087474e-06   ,-3.235507055241738e-06  ,      0.0 ,2.37364584753501e-06    ,4.479047398586128e-06  ,0.3116294424033699   ,0.023600634576976094    ,-1.145631415316973e-07  ,-3.9955762127692395e-08 ,1.6955273356978924e-07 ,44.330518672446566     ,0.0 ,52.31245172900217     ,2.483167156776158       ,        0.0 ,        0.0 , 0.0
 0.0 ,0.0 ,           0.0 ,            0.0 ,            0.0 ,            0.0 ,              0.0 ,                   0.0 , 567.0 ,5.800665 ,-9.288849 ,           0.0 ,           0.0 ,       0.0 ,89.08676       ,-18.19753   ,-0.00832663      ,-0.0002338902    ,                 0.0 ,             0.0 ,             0.0 ,                 0.0 ,                 0.0 ,        0.0 ,3.4898069757611005     ,            0.0 ,            0.0 ,            0.0 ,              0.0 ,                   0.0 ,  0.0 ,0.0 , 454.7270291715162   ,1.0                ,0.0 ,-81.25412829988696  ,-173.27356814546675 ,-1.7303188587952683     ,-85.76155271435776  ,          0.0 ,          0.0 ,-81.22100991623738  ,-173.30670203876753 ,-85.76155271435776  ,-340.2892742572483  , 51.905656948599265  ,113.42974198048027  , 89.90323750652418   ,-76.26095683785863    ,-168.28039266290614 ,-1.7303188587952683     ,-80.76837635425967  ,          0.0 ,          0.0 ,-76.22783342096456   ,-168.31352520445944 ,-80.76837635425967  ,-325.3096961253739  , 51.905656948599265  ,108.43658984477491   , 89.90323750652418   ,2.4775437508781276e-06  ,-2.6159175626181055e-06 ,-1.0315796352246777e-06 ,      0.0 ,      0.0 ,      0.0 ,2.5466924772159073e-06  ,-2.6850655119575596e-06 ,      0.0 ,-1.3837362388373777e-07 ,2.7250605873936232e-06 ,0.05200680557264511  ,-3.6576999235627407e-07 ,-1.45220352480063e-07   ,0.0                     ,3.959512311226431e-07  ,96.82096212556829      ,0.0 ,0.0                   ,0.0                     ,        0.0 ,        0.0 , 0.0
 0.0 ,0.0 ,           0.0 ,            0.0 ,            0.0 ,            0.0 ,              0.0 ,                   0.0 , 568.0 ,7.741592 ,-9.252855 ,           0.0 ,           0.0 ,       0.0 ,91.04073       ,-18.35693   ,-0.01131723      ,0.0003525695     ,                 0.0 ,             0.0 ,             0.0 ,                 0.0 ,                 0.0 ,        0.0 ,2.027992648814632      ,            0.0 ,            0.0 ,            0.0 ,              0.0 ,                   0.0 ,  0.0 ,0.0 , 455.99687240194214  ,1.0                ,0.0 ,-81.26071725470416  ,-172.49562462765738 ,-2.163564399465439      ,-85.43053699503777  ,          0.0 ,          0.0 ,-81.20926414648619  ,-172.54709821007984 ,-85.43053699503777  ,-339.18689400065733 , 51.559722833377535  ,113.0622986478125   , 89.30405797344628   ,-76.26751700902446    ,-167.50248909369856 ,-2.163564399465439      ,-80.4373366637096   ,          0.0 ,          0.0 ,-76.21605884649173   ,-167.5539112764886  ,-80.4373366637096   ,-324.20733771211786 , 51.559722833377535  ,108.06910743074272   , 89.30405797344628   ,2.471420087558754e-06   ,-2.794329546583474e-06  ,-2.0221147422065282e-06 ,      0.0 ,      0.0 ,      0.0 ,2.668565525872319e-06   ,-2.9914753918116747e-06 ,      0.0 ,-3.229098642263868e-07  ,2.9423505536596444e-06 ,0.3013883014475223   ,0.027728670104486774    ,-2.503090923638416e-07  ,-2.1470033715518562e-08 ,2.371709879369601e-07  ,54.619020307777184     ,0.0 ,42.52149676543293     ,2.426059878025717       ,        0.0 ,        0.0 , 0.0
 0.0 ,0.0 ,           0.0 ,            0.0 ,            0.0 ,            0.0 ,              0.0 ,                   0.0 , 569.0 ,9.677576 ,-9.32788  ,           0.0 ,           0.0 ,       0.0 ,91.46491       ,-18.47437   ,-0.01329631      ,-0.0001407443    ,                 0.0 ,             0.0 ,             0.0 ,                 0.0 ,                 0.0 ,        0.0 ,2.0148345388945206     ,            0.0 ,            0.0 ,            0.0 ,              0.0 ,                   0.0 ,  0.0 ,0.0 , 456.52331979422587  ,1.0                ,0.0 ,-82.33933048581923  ,-173.44148752996009 ,-2.4977056517310494     ,-86.01535064853752  ,          0.0 ,          0.0 ,-82.2701716744653   ,-173.51066161745013 ,-86.01535064853752  ,-341.796133977979   , 51.63063139477781   ,113.93202841862876  , 89.42687619228968   ,-77.34622143506593    ,-168.44841845060617 ,-2.4977056517310494     ,-81.02223657722958  ,          0.0 ,          0.0 ,-77.27706257009399   ,-168.51754179636927 ,-81.02223657722958  ,-326.8168764092836  , 51.63063139477781   ,108.93895372892186   , 89.42687619228968   ,2.2528366985054824e-06  ,-2.8395689664673396e-06 ,-2.850840470369688e-06  ,      0.0 ,      0.0 ,      0.0 ,2.7296615034767835e-06  ,-3.3163939263447237e-06 ,      0.0 ,-5.867323224568462e-07  ,3.151060495451663e-06  ,0.3051519505620503   ,0.02810398131778359     ,-2.1843109277924902e-07 ,-2.1760674586981912e-08 ,2.8460404355984213e-07 ,53.204384345854        ,0.0 ,43.097112297275274    ,2.4589015664233465      ,        0.0 ,        0.0 , 0.0
 0.0 ,0.0 ,           0.0 ,            0.0 ,            0.0 ,            0.0 ,              0.0 ,                   0.0 , 570.0 ,11.60903 ,-9.416987 ,           0.0 ,           0.0 ,       0.0 ,91.35641       ,-18.55263   ,-0.01037353      ,-0.0006238782    ,                 0.0 ,             0.0 ,             0.0 ,                 0.0 ,                 0.0 ,        0.0 ,2.491673273816844      ,            0.0 ,            0.0 ,            0.0 ,              0.0 ,                   0.0 ,  0.0 ,0.0 , 456.4081860745888   ,1.0                ,0.0 ,-83.57288902394744  ,-174.58942452851468 ,-2.8781297674446304     ,-86.71084333423632  ,          0.0 ,          0.0 ,-83.48186937357876  ,-174.680478814996   ,-86.71084333423632  ,-344.8731175898186  , 51.747541641052834  ,114.95768891904865  , 89.62936452229945   ,-78.57996575984241    ,-169.59649611636615 ,-2.8781297674446304     ,-81.71791015956222  ,          0.0 ,          0.0 ,-78.48894610947372   ,-169.6875012355201  ,-81.71791015956222  ,-329.8943813974269  , 51.747541641052834  ,109.9648055285307    , 89.62936452229945   ,2.1776352105930755e-07  ,-2.0364005951255924e-06 ,-3.4495668255775293e-06 ,      0.0 ,      0.0 ,      0.0 ,1.1552653556715042e-06  ,-2.973902577239771e-06  ,      0.0 ,-1.8186371232336122e-06 ,2.188449103670921e-06  ,0.052917273238860224 ,-6.239007718633995e-07  ,-5.899061099664684e-08  ,0.0                     ,6.270333667294893e-07  ,95.27609706041734      ,0.0 ,0.0                   ,0.0                     ,        0.0 ,        0.0 , 0.0
 0.0 ,0.0 ,           0.0 ,            0.0 ,            0.0 ,            0.0 ,              0.0 ,                   0.0 , 571.0 ,13.53568 ,-9.489417 ,           0.0 ,           0.0 ,       0.0 ,91.14909       ,-18.60433   ,-0.01039555      ,-0.000648968     ,                 0.0 ,             0.0 ,             0.0 ,                 0.0 ,                 0.0 ,        0.0 ,1.5047927980766536     ,            0.0 ,            0.0 ,            0.0 ,              0.0 ,                   0.0 ,  0.0 ,0.0 , 471.481806531325    ,0.9999999999999999 ,0.0 ,-84.64004639544508  ,-176.02182555866935 ,-3.0732114605483356     ,-87.47633337120277  ,          0.0 ,          0.0 ,-84.53673658438275  ,-176.12513324533927 ,-87.47633337120277  ,-348.1382398081874  , 52.05315427395313   ,116.0460532337409   , 90.15870776411498   ,-79.6474592368966     ,-171.0292555613324  ,-3.0732114605483356     ,-82.48374611679834  ,          0.0 ,          0.0 ,-79.5441518912769    ,-171.1325383817083  ,-82.48374611679834  ,-333.1604808302802  , 52.05315427395313   ,111.05348646972503   , 90.15870776411498   ,2.111116977263617e-06   ,-2.325645591235483e-06  ,-5.085068314357097e-06  ,      0.0 ,      0.0 ,      0.0 ,3.3013721653665743e-06  ,-3.5159007793384397e-06 ,      0.0 ,-2.1452868835887987e-07 ,3.4137143514208374e-06 ,0.1763955931289013   ,0.010208016131518949    ,-7.135563677196427e-08  ,-5.631235876190812e-09  ,3.88714047257906e-07   ,64.45103735177808      ,0.0 ,30.259942458652223    ,1.2422663408336831      ,        0.0 ,        0.0 , 0.0
 0.0 ,0.0 ,           0.0 ,            0.0 ,            0.0 ,            0.0 ,              0.0 ,                   0.0 , 572.0 ,15.45876 ,-9.544663 ,           0.0 ,           0.0 ,       0.0 ,90.94365       ,-18.63903   ,-0.01237093      ,-0.000622217     ,                 0.0 ,             0.0 ,             0.0 ,                 0.0 ,                 0.0 ,        0.0 ,1.2474660365244323     ,            0.0 ,            0.0 ,            0.0 ,              0.0 ,                   0.0 ,  0.0 ,0.0 , 472.6689467150998   ,1.0                ,0.0 ,-85.82754200339366  ,-177.0172467417822  ,-3.082406076690114      ,-88.08797218570133  ,          0.0 ,          0.0 ,-85.72324985064225  ,-177.12151631851472 ,-88.08797218570133  ,-350.9327337675516  , 52.10131527743776   ,116.9775885432978   , 90.24212997567798   ,-80.83512562230437    ,-172.02479803497855 ,-3.082406076690114      ,-83.09556330857767  ,          0.0 ,          0.0 ,-80.73083600282384   ,-172.12909257205484 ,-83.09556330857767  ,-335.95553698172307 , 52.10131527743776   ,111.9851548127004    , 90.24212997567798   ,5.597190870331641e-07   ,-1.2098614362014496e-06 ,-4.495879537830795e-06  ,      0.0 ,      0.0 ,      0.0 ,2.165444922019114e-06   ,-2.8155876688429786e-06 ,      0.0 ,-6.501427721565735e-07  ,2.5057138074626496e-06 ,0.05463014190269017  ,2.038091983172926e-08   ,-3.983515744235931e-07  ,0.0                     ,1.0977729901251626e-06 ,93.12510722083594      ,0.0 ,0.0                   ,0.0                     ,        0.0 ,        0.0 , 0.0
 0.0 ,0.0 ,           0.0 ,            0.0 ,            0.0 ,            0.0 ,              0.0 ,                   0.0 , 573.0 ,17.38001 ,-9.588673 ,           0.0 ,           0.0 ,       0.0 ,90.73966       ,-18.66264   ,-0.01271514      ,-0.0007059       ,                 0.0 ,             0.0 ,             0.0 ,                 0.0 ,                 0.0 ,        0.0 ,1.5023349277644957     ,            0.0 ,            0.0 ,            0.0 ,              0.0 ,                   0.0 ,  0.0 ,0.0 , 459.92705663392735  ,1.0                ,0.0 ,-86.82448530061731  ,-177.73172779621854 ,-3.1343766012986802     ,-88.56750519071414  ,          0.0 ,          0.0 ,-86.71654458017265  ,-177.8396435421493  ,-88.56750519071414  ,-353.1236533575978  , 52.083852987100435  ,117.70791769895138  , 90.21188843058474   ,-81.83178829892807    ,-172.73898084122783 ,-3.1343766012986802     ,-83.5748081966119   ,          0.0 ,          0.0 ,-81.72384757848342   ,-172.8469466144095  ,-83.5748081966119   ,-338.1456123622539  , 52.083852987100435  ,112.71517087433253   , 90.21188843058474   ,7.873700064811875e-07   ,-1.3619261445884965e-06 ,-5.9103381943420135e-06 ,      0.0 ,      0.0 ,      0.0 ,2.9027751466836723e-06  ,-3.47733168412971e-06   ,      0.0 ,-5.745564875491585e-07  ,3.2059289756478555e-06 ,0.05443622989105852  ,7.689923774051385e-05   ,-1.3458143602997858e-08 ,-3.600264908509734e-11  ,4.913173280272172e-07  ,93.50185861308323      ,0.0 ,0.10961852168199718   ,0.006507096415491357    ,        0.0 ,        0.0 , 0.0
 0.0 ,0.0 ,           0.0 ,            0.0 ,            0.0 ,            0.0 ,              0.0 ,                   0.0 , 574.0 ,19.30078 ,-9.625532 ,           0.0 ,           0.0 ,       0.0 ,90.53235       ,-18.67877   ,-0.0118663       ,-0.0007192914    ,                 0.0 ,             0.0 ,             0.0 ,                 0.0 ,                 0.0 ,        0.0 ,2.9991643909634886     ,            0.0 ,            0.0 ,            0.0 ,              0.0 ,                   0.0 ,  0.0 ,0.0 , 460.81805017455156  ,1.0                ,0.0 ,-87.9280002705322   ,-178.2957259050837  ,-3.0768100370472657     ,-89.00509203928753  ,          0.0 ,          0.0 ,-87.82336402362562  ,-178.40038213180094 ,-89.00509203928753  ,-355.2287983151766  , 51.95688940562974   ,118.40958278420351  , 89.99197594974741   ,-82.93546094181414    ,-173.30318157923978 ,-3.0768100370472657     ,-84.01254771518217  ,          0.0 ,          0.0 ,-82.83082469490756   ,-173.407887768523   ,-84.01254771518217  ,-340.2512153002107  , 51.95688940562974   ,113.41708842092558   , 89.99197594974741   ,-3.303516720631047e-06  ,5.796903137668193e-08   ,-4.117453577114679e-06  ,      0.0 ,      0.0 ,      0.0 ,1.0387733919705183e-06  ,-4.28432086143171e-06   ,      0.0 ,-3.2455474694611923e-06 ,2.8216408593754904e-06 ,0.5392645397962021   ,0.05436540058537597     ,-9.346085350842164e-07  ,-2.0865354449243318e-08 ,0.0                    ,9.348420885189136e-07  ,0.0 ,92.63132427584878     ,4.992541827508113       ,        0.0 ,        0.0 , 0.0
 0.0 ,0.0 ,           0.0 ,            0.0 ,            0.0 ,            0.0 ,              0.0 ,                   0.0 , 575.0 ,21.22204 ,-9.659476 ,           0.0 ,           0.0 ,       0.0 ,90.30392       ,-18.68987   ,-0.01070968      ,-0.0007447783    ,                 0.0 ,             0.0 ,             0.0 ,                 0.0 ,                 0.0 ,        0.0 ,2.2708037042613642     ,            0.0 ,            0.0 ,            0.0 ,              0.0 ,                   0.0 ,  0.0 ,0.0 , 434.19593015949465  ,0.9999999999999999 ,0.0 ,-88.66310120013742  ,-178.7954512595012  ,-3.1403841999892133     ,-89.33496550284056  ,          0.0 ,          0.0 ,-88.55354220647217  ,-178.90506328593844 ,-89.33496550284056  ,-356.7934981248467  , 51.940821503434336  ,118.93115766882201  , 89.96414948113372   ,-83.67136928361137    ,-173.80370981655688 ,-3.1403841999892133     ,-84.3432034104263   ,          0.0 ,          0.0 ,-83.56178760221987   ,-173.9132967246135  ,-84.3432034104263   ,-341.81829729071944 , 51.940821503434336  ,113.93944053242086   , 89.96414948113372   ,-2.7143169406959295e-06 ,2.322307366214859e-07   ,-2.2459675032536573e-06 ,      0.0 ,      0.0 ,      0.0 ,6.802555656748725e-07   ,-3.162341869884523e-06  ,      0.0 ,-2.482086178617748e-06  ,2.051204178428867e-06  ,0.414993769599992    ,0.03721007451745195     ,-2.116856115456948e-07  ,-1.1624853444005932e-07 ,6.339653194637807e-07  ,16.48149627225559      ,0.0 ,75.25971531230493     ,3.739455091619866       ,        0.0 ,        0.0 , 0.0
 0.0 ,0.0 ,           0.0 ,            0.0 ,            0.0 ,            0.0 ,              0.0 ,                   0.0 , 576.0 ,23.14421 ,-9.691764 ,           0.0 ,           0.0 ,       0.0 ,90.05605       ,-18.69737   ,-0.01014685      ,-0.0007253853    ,                 0.0 ,             0.0 ,             0.0 ,                 0.0 ,                 0.0 ,        0.0 ,0.0006134439153117066  ,            0.0 ,            0.0 ,            0.0 ,              0.0 ,                   0.0 ,  0.0 ,0.0 , 463.01896332212004  ,1.0                ,0.0 ,-89.30451988707715  ,-179.47099542839453 ,-2.9136805282948153     ,-89.71493123732114  ,          0.0 ,          0.0 ,-89.21041933169258  ,-179.56504599283207 ,-89.71493123732114  ,-358.49042154786434 , 52.02148099447987   ,119.49682383017998  , 90.1038531943126    ,-84.31243898497979    ,-174.4788445408293  ,-2.9136805282948153     ,-84.72285033215654  ,          0.0 ,          0.0 ,-84.218348426528     ,-174.5729451092867  ,-84.72285033215654  ,-343.5141688544964  , 52.02148099447987   ,114.504722969267     , 90.1038531943126    ,-5.783607510730724e-10  ,6.26045893663955e-11    ,-1.6480587926711411e-09 ,      0.0 ,      0.0 ,      0.0 ,6.262786956298157e-10   ,-1.1420350413696673e-09 ,      0.0 ,-5.157560390178939e-10  ,8.966050257902255e-10  ,0.2942888428858029   ,0.02521771838425897     ,1.0094628217715353e-07  ,-2.2442395526800638e-07 ,3.1629636019740195e-07 ,40.543563884537726     ,0.0 ,49.497785147376       ,2.4966172603360923      ,        0.0 ,        0.0 , 0.0
 0.0 ,0.0 ,           0.0 ,            0.0 ,            0.0 ,            0.0 ,              0.0 ,                   0.0 , 577.0 ,25.06733 ,-9.723346 ,           0.0 ,           0.0 ,       0.0 ,89.78735       ,-18.70208   ,-0.01055927      ,-0.0006695795    ,                 0.0 ,             0.0 ,             0.0 ,                 0.0 ,                 0.0 ,        0.0 ,1.0007467342886698     ,            0.0 ,            0.0 ,            0.0 ,              0.0 ,                   0.0 ,  0.0 ,0.0 , 464.02666756470467  ,1.0                ,0.0 ,-90.03231848776704  ,-179.99485330655236 ,-3.0065159069607335     ,-90.05575917383416  ,          0.0 ,          0.0 ,-89.93181399963927  ,-180.09535279298896 ,-90.05575917383416  ,-360.0829609393055  , 52.020325112098035  ,120.02765363927283  , 90.10183863843328   ,-85.04016222839235    ,-175.00270205295382 ,-3.0065159069607335     ,-85.0635929197781   ,          0.0 ,          0.0 ,-84.93965774026456   ,-175.10325152354068 ,-85.0635929197781   ,-345.106457184147   , 52.020325112098035  ,115.03550240716126   , 90.10183863843328   ,-9.437240752935749e-07  ,1.0227847148576188e-07  ,-2.6885133608523844e-06 ,      0.0 ,      0.0 ,      0.0 ,1.021700281910261e-06   ,-1.863146185782535e-06  ,      0.0 ,-8.414454040307714e-07  ,1.4627330197846132e-06 ,0.05563652753260223  ,-8.771901608698403e-08  ,-1.3355523399113525e-07 ,0.0                     ,4.0961408367053104e-07 ,90.84446471221702      ,0.0 ,0.0                   ,0.0                     ,        0.0 ,        0.0 , 0.0
 0.0 ,0.0 ,           0.0 ,            0.0 ,            0.0 ,            0.0 ,              0.0 ,                   0.0 , 578.0 ,26.99123 ,-9.754654 ,           0.0 ,           0.0 ,       0.0 ,89.49963       ,-18.70462   ,-0.01084542      ,-0.0007704966    ,                 0.0 ,             0.0 ,             0.0 ,                 0.0 ,                 0.0 ,        0.0 ,0.999563354257224      ,            0.0 ,            0.0 ,            0.0 ,              0.0 ,                   0.0 ,  0.0 ,0.0 , 465.03103177620324  ,1.0                ,0.0 ,-90.73940576170753  ,-180.50014374790746 ,-2.984158692635173      ,-90.38049692995313  ,          0.0 ,          0.0 ,-90.64007119029648  ,-180.59943831053255 ,-90.38049692995313  ,-361.62000145905796 , 52.013212617192835  ,120.54000048635267  , 90.08952205430478   ,-85.7473094384025     ,-175.50804240279666 ,-2.984158692635173      ,-85.38840061317123  ,          0.0 ,          0.0 ,-85.64797486699145   ,-175.60738698725402 ,-85.38840061317123  ,-346.64374748922245 , 52.013212617192835  ,115.54794916307415   , 90.08952205430478   ,-1.1402443996437712e-06 ,2.410483512853726e-07   ,-2.6282703756059984e-06 ,      0.0 ,      0.0 ,      0.0 ,1.0349703871734004e-06  ,-1.934166585466302e-06  ,      0.0 ,-8.99196198292902e-07   ,1.5070911475996522e-06 ,0.05615611553022352  ,3.2956098940049764e-05  ,-9.24920987769471e-08   ,-1.0874002590396015e-10 ,3.244397694083731e-07  ,90.4381170827508       ,0.0 ,0.06411833481979241   ,0.003257364512434806    ,        0.0 ,        0.0 , 0.0
 0.0 ,0.0 ,           0.0 ,            0.0 ,            0.0 ,            0.0 ,              0.0 ,                   0.0 , 579.0 ,28.91565 ,-9.785874 ,           0.0 ,           0.0 ,       0.0 ,89.19707       ,-18.70558   ,-0.009749776     ,-0.0001757415    ,                 0.0 ,             0.0 ,             0.0 ,                 0.0 ,                 0.0 ,        0.0 ,1.4985726659589367     ,            0.0 ,            0.0 ,            0.0 ,              0.0 ,                   0.0 ,  0.0 ,0.0 , 466.03400435123     ,0.9999999999999999 ,0.0 ,-91.52247616891445  ,-181.10120121140918 ,-2.946135251901918      ,-90.7584452756076   ,          0.0 ,          0.0 ,-91.42565764447427  ,-181.19799477701616 ,-90.7584452756076   ,-363.3820926559313  , 52.02382607307794   ,121.12734756783634  , 90.10791119703855   ,-86.53040478860713    ,-176.10914980648636 ,-2.946135251901918      ,-85.76638888354361  ,          0.0 ,          0.0 ,-86.43359625465139   ,-176.20594332727092 ,-85.76638888354361  ,-348.40593849149593 , 52.02382607307794   ,116.13534614050229   , 90.10791119703855   ,-2.252735354393435e-06  ,6.903394776397515e-07   ,-1.6825794064667025e-06 ,      0.0 ,      0.0 ,      0.0 ,9.138510912433049e-07   ,-2.4762469679969886e-06 ,      0.0 ,-1.5623958767536837e-06 ,1.7540278545100706e-06 ,0.5293689978099632   ,0.05609064592607673     ,-6.274164790258521e-07  ,-8.771172940278464e-08  ,0.0                    ,7.656948101778886e-07  ,0.0 ,89.80188874508674     ,4.992057890243541       ,        0.0 ,        0.0 , 0.0
 0.0 ,0.0 ,           0.0 ,            0.0 ,            0.0 ,            0.0 ,              0.0 ,                   0.0 , 580.0 ,30.84032 ,-9.817078 ,           0.0 ,           0.0 ,       0.0 ,88.88362       ,-18.70544   ,-0.009713573     ,-0.0001086918    ,                 0.0 ,             0.0 ,             0.0 ,                 0.0 ,                 0.0 ,        0.0 ,1.4998709775123835     ,            0.0 ,            0.0 ,            0.0 ,              0.0 ,                   0.0 ,  0.0 ,0.0 , 467.0368388668943   ,1.0                ,0.0 ,-92.21811521663096  ,-181.70644808869633 ,-2.9374693790276014     ,-91.11783692826062  ,          0.0 ,          0.0 ,-92.12179164563024  ,-181.8027966500194  ,-91.11783692826062  ,-365.042365252943   , 52.06959472801844   ,121.68077174452918  , 90.1871894408495    ,-87.22614349210673    ,-176.7144463983658  ,-2.9374693790276014     ,-86.12585021922033  ,          0.0 ,          0.0 ,-87.12981492626731   ,-176.81074497904422 ,-86.12585021922033  ,-350.0664101303381  , 52.06959472801844   ,116.68882000258547   , 90.1871894408495    ,-2.293351161862211e-06  ,7.515213471362883e-07   ,-1.5588837374832776e-06 ,      0.0 ,      0.0 ,      0.0 ,9.395996482003102e-07   ,-2.4814299624101017e-06 ,      0.0 ,-1.5418298147259226e-06 ,1.7674782054786268e-06 ,0.2905815091780706   ,0.02546044663050934     ,3.962833062740012e-09   ,-5.9553637342592877e-08 ,6.833287964176756e-07  ,40.44610145942121      ,0.0 ,48.992747138003715    ,2.4957874848668715      ,        0.0 ,        0.0 , 0.0
 0.0 ,0.0 ,           0.0 ,            0.0 ,            0.0 ,            0.0 ,              0.0 ,                   0.0 , 581.0 ,32.76488 ,-9.848286 ,           0.0 ,           0.0 ,       0.0 ,88.56219       ,-18.7045    ,-0.009492123     ,-4.122574e-05    ,                 0.0 ,             0.0 ,             0.0 ,                 0.0 ,                 0.0 ,        0.0 ,2.0022211221177884     ,            0.0 ,            0.0 ,            0.0 ,              0.0 ,                   0.0 ,  0.0 ,0.0 , 467.83418624653365  ,1.0                ,0.0 ,-93.00823093482066  ,-182.29918423240161 ,-2.9898868711142983     ,-91.49185613779771  ,          0.0 ,          0.0 ,-92.90812892037958  ,-182.3992962851691  ,-91.49185613779771  ,-366.79926133194454 , 52.08168447189493   ,122.2663871289929   , 90.2081252812275    ,-88.01615712023866    ,-177.30709031777036 ,-2.9898868711142983     ,-86.49976731466427  ,          0.0 ,          0.0 ,-87.91605503955898   ,-177.40720237053787 ,-86.49976731466427  ,-351.8230296715897  , 52.08168447189493   ,117.27434324286644   , 90.2081252812275    ,-3.328069687035509e-06  ,1.163839386815224e-06   ,-4.4019830632696364e-06 ,      0.0 ,      0.0 ,      0.0 ,2.224035678733078e-06   ,-4.388266629152896e-06  ,      0.0 ,-2.1642304498595993e-06 ,3.373254932274713e-06  ,0.05593459508989229  ,-8.225902446285866e-07  ,1.7451989151056338e-09  ,0.0                     ,8.225924504931031e-07  ,90.23553493861837      ,0.0 ,0.0                   ,0.0                     ,        0.0 ,        0.0 , 0.0
 0.0 ,0.0 ,           0.0 ,            0.0 ,            0.0 ,            0.0 ,              0.0 ,                   0.0 , 582.0 ,34.68898 ,-9.879488 ,           0.0 ,           0.0 ,       0.0 ,88.23454       ,-18.70294   ,-0.008723629     ,3.48319e-05      ,                 0.0 ,             0.0 ,             0.0 ,                 0.0 ,                 0.0 ,        0.0 ,0.7614722098049793     ,            0.0 ,            0.0 ,            0.0 ,              0.0 ,                   0.0 ,  0.0 ,0.0 , 437.9981666368379   ,1.0                ,0.0 ,-94.91593624295331  ,-182.81338706902415 ,-2.926465991116423      ,-92.04579140531662  ,          0.0 ,          0.0 ,-94.81843422025247  ,-182.91089455134085 ,-92.04579140531662  ,-369.7751225621878  , 51.683820915639586  ,123.25836546923074  , 89.51898925741497   ,-89.92464449940452    ,-177.82210828545493 ,-2.926465991116423      ,-87.05449966176784  ,          0.0 ,          0.0 ,-89.8271475917895    ,-177.91961576777163 ,-87.05449966176784  ,-354.80126121511756 , 51.683820915639586  ,118.26706168929886   , 89.51898925741497   ,-1.584118765206299e-06  ,5.320566758529165e-07   ,-3.3663352412657804e-06 ,      0.0 ,      0.0 ,      0.0 ,1.4984111898749784e-06  ,-2.550473332695485e-06  ,      0.0 ,-1.0520621178241437e-06 ,2.052792796623974e-06  ,0.05764549322252857  ,-4.4126933978718426e-07 ,-5.9378003520347535e-09 ,0.0                     ,4.432367463205545e-07  ,89.92444557320135      ,0.0 ,0.0                   ,0.0                     ,        0.0 ,        0.0 , 0.0
 0.0 ,0.0 ,           0.0 ,            0.0 ,            0.0 ,            0.0 ,              0.0 ,                   0.0 , 583.0 ,36.61216 ,-9.910642 ,           0.0 ,           0.0 ,       0.0 ,87.90266       ,-18.70091   ,-0.007803131     ,0.0001175891     ,                 0.0 ,             0.0 ,             0.0 ,                 0.0 ,                 0.0 ,        0.0 ,1.727935387319663      ,            0.0 ,            0.0 ,            0.0 ,              0.0 ,                   0.0 ,  0.0 ,0.0 , 437.7801309077271   ,1.0                ,0.0 ,-95.7910513771569   ,-183.4831141129522  ,-2.7780363734871427     ,-92.45683786860025  ,          0.0 ,          0.0 ,-95.70243192615384  ,-183.57170062500222 ,-92.45683786860025  ,-371.7309934605606  , 51.70034529863365   ,123.91033923628214  , 89.54762814443521   ,-90.80007922567101    ,-178.49211649583347 ,-2.7780363734871427     ,-87.4658632922858   ,          0.0 ,          0.0 ,-90.71145734983938   ,-178.58072827468195 ,-87.4658632922858   ,-356.7580511428013  , 51.70034529863365   ,118.91936688596186   , 89.54762814443521   ,-1.923883271208754e-06  ,4.881575046244769e-07   ,-1.2737251832857753e-06 ,      0.0 ,      0.0 ,      0.0 ,7.358249600794484e-07   ,-2.1715508024641213e-06 ,      0.0 ,-1.435725791851076e-06  ,1.5202224992018533e-06 ,0.1762780533214626   ,0.020426866816174925    ,-7.700801364348686e-07  ,-8.092998507766438e-09  ,1.5123540547327588e-07 ,73.03798507623718      ,0.0 ,15.575485470499686    ,1.2592045072584872      ,        0.0 ,        0.0 , 0.0
 0.0 ,0.0 ,           0.0 ,            0.0 ,            0.0 ,            0.0 ,              0.0 ,                   0.0 , 584.0 ,38.53384 ,-9.94166  ,           0.0 ,           0.0 ,       0.0 ,87.56844       ,-18.6985    ,-0.008519988     ,0.000342523      ,                 0.0 ,             0.0 ,             0.0 ,                 0.0 ,                 0.0 ,        0.0 ,4.0                    ,            0.0 ,            0.0 ,            0.0 ,              0.0 ,                   0.0 ,  0.0 ,0.0 , 471.0520052484498   ,1.0                ,0.0 ,-94.67175607382373  ,-184.14654802634695 ,-2.9335010350826627     ,-92.46991503002009  ,          0.0 ,          0.0 ,-94.57540899264312  ,-184.24290011309586 ,-92.46991503002009  ,-371.2882590450231  , 52.38814976795999   ,123.76275305824572  , 90.73893686849871   ,-89.67978363813681    ,-179.15459558332077 ,-2.9335010350826627     ,-87.47794257952697  ,          0.0 ,          0.0 ,-89.58343654215      ,-179.25094767006968 ,-87.47794257952697  ,-356.31235178997565 , 52.38814976795999   ,118.77080061521954   , 90.73893686849871   ,-3.474447984517642e-06  ,1.3840656353608017e-06  ,-4.876611204739102e-06  ,      0.0 ,      0.0 ,      0.0 ,2.396825511130019e-06   ,-4.487207860286859e-06  ,      0.0 ,-2.09038234915684e-06   ,3.494601962086631e-06  ,0.05639644301513514  ,8.836501179558405e-06   ,-5.023432668838606e-09  ,-6.236180262938638e-13  ,4.5577661167651284e-07 ,89.59939326168296      ,0.0 ,0.01809153524649794   ,0.0009162294786828615   ,        0.0 ,        0.0 , 0.0
 0.0 ,0.0 ,           0.0 ,            0.0 ,            0.0 ,            0.0 ,              0.0 ,                   0.0 , 585.0 ,40.4533  ,-9.972353 ,           0.0 ,           0.0 ,       0.0 ,87.23447       ,-18.6958    ,-0.009008345     ,0.0003074362     ,                 0.0 ,             0.0 ,             0.0 ,                 0.0 ,                 0.0 ,        0.0 ,3.500990478668312      ,            0.0 ,            0.0 ,            0.0 ,              0.0 ,                   0.0 ,  0.0 ,0.0 , 472.05934988401214  ,1.0                ,0.0 ,-95.14851185488487  ,-184.46682715843286 ,-2.8626595805380957     ,-92.66422690408841  ,          0.0 ,          0.0 ,-95.05609690839395  ,-184.5592421049238  ,-92.66422690408841  ,-372.2795659314676  , 52.3790364723781    ,124.0931886391354   , 90.72315213949099   ,-90.15676367823113    ,-179.47507395768935 ,-2.8626595805380957     ,-87.67248370053258  ,          0.0 ,          0.0 ,-90.06435370483811   ,-179.56748890418027 ,-87.67248370053258  ,-357.3043063151755  , 52.3790364723781    ,119.10143543839186   , 90.72315213949099   ,-4.157908787717351e-06  ,1.5665086348652492e-06  ,-2.5894330597042553e-06 ,      0.0 ,      0.0 ,      0.0 ,1.985859662166044e-06   ,-4.577259815018146e-06  ,      0.0 ,-2.591400152852101e-06  ,3.3669224027155294e-06 ,0.29181087357379604  ,0.025364350308537346    ,-1.7261241471340562e-07 ,-1.702293026306222e-09  ,7.403840352575041e-07  ,39.20852209526805      ,0.0 ,49.384547891138624    ,2.501035868586417       ,        0.0 ,        0.0 , 0.0
 0.0 ,0.0 ,           0.0 ,            0.0 ,            0.0 ,            0.0 ,              0.0 ,                   0.0 , 586.0 ,42.36957 ,-10.00232 ,           0.0 ,           0.0 ,       0.0 ,86.90536       ,-18.69286   ,-0.008586329     ,0.0004566529     ,                 0.0 ,             0.0 ,             0.0 ,                 0.0 ,                 0.0 ,        0.0 ,2.504196914642529      ,            0.0 ,            0.0 ,            0.0 ,              0.0 ,                   0.0 ,  0.0 ,0.0 , 473.0699444939956   ,1.0                ,0.0 ,-95.5451797914947   ,-184.69299462046155 ,-2.773540364763863      ,-92.80309521121859  ,          0.0 ,          0.0 ,-95.45805080570129  ,-184.78011859617902 ,-92.80309521121859  ,-373.04127463325074 , 52.35384812063009   ,124.34710815792823  , 90.6795223789887    ,-90.55331656448782    ,-179.70114147152225 ,-2.773540364763863      ,-87.81121701777028  ,          0.0 ,          0.0 ,-90.46616765422215   ,-179.78826544723975 ,-87.81121701777028  ,-358.0656650856736  , 52.35384812063009   ,119.35525500898896   , 90.6795223789887    ,-3.5360822550929454e-06 ,1.4081451589858219e-06  ,-3.891226126899426e-06  ,      0.0 ,      0.0 ,      0.0 ,2.0847532929673623e-06  ,-4.2126908900820785e-06 ,      0.0 ,-2.127937597114717e-06  ,3.209003309340525e-06  ,0.056717432465492365 ,-4.353797800528447e-07  ,-5.350174546111767e-09  ,0.0                     ,4.354126913030091e-07  ,88.98606746005238      ,0.0 ,0.0                   ,0.0                     ,        0.0 ,        0.0 , 0.0
 0.0 ,0.0 ,           0.0 ,            0.0 ,            0.0 ,            0.0 ,              0.0 ,                   0.0 , 587.0 ,44.28144 ,-10.03068 ,           0.0 ,           0.0 ,       0.0 ,86.59048       ,-18.68973   ,-0.008698306     ,0.0006274423     ,                 0.0 ,             0.0 ,             0.0 ,                 0.0 ,                 0.0 ,        0.0 ,0.5007222740476512     ,            0.0 ,            0.0 ,            0.0 ,              0.0 ,                   0.0 ,  0.0 ,0.0 , 473.77432517515837  ,1.0                ,0.0 ,-95.84738408385374  ,-184.76006377638285 ,-2.573466284861007      ,-92.85751409714834  ,          0.0 ,          0.0 ,-95.77288661242852  ,-184.8345662405853  ,-92.85751409714834  ,-373.46500697709786 , 52.28303347349933   ,124.48833570718422  , 90.556875418313     ,-90.8557075947756     ,-179.7683722123079  ,-2.573466284861007      ,-87.86582261779097  ,          0.0 ,          0.0 ,-90.78119004362885   ,-179.84287476122796 ,-87.86582261779097  ,-358.4899323695906  , 52.28303347349933   ,119.49664414310924   , 90.556875418313     ,-1.5942203496887142e-06 ,7.055486641224919e-07   ,-1.970801449343737e-06  ,      0.0 ,      0.0 ,      0.0 ,1.0701798345322501e-06  ,-1.9588515198443195e-06 ,      0.0 ,-8.886716856509399e-07  ,1.5361207491756359e-06 ,0.29072558839651463  ,0.026110645243811566    ,-1.2548355935468975e-07 ,-7.3153234235990586e-09 ,2.7097704192763964e-07 ,39.81489671546368      ,0.0 ,47.849106828673484    ,2.497212306293545       ,        0.0 ,        0.0 , 0.0
 0.0 ,0.0 ,           0.0 ,            0.0 ,            0.0 ,            0.0 ,              0.0 ,                   0.0 , 588.0 ,46.18755 ,-10.05521 ,           0.0 ,           0.0 ,       0.0 ,86.31248       ,-18.68645   ,-0.009988633     ,0.0005391923     ,                 0.0 ,             0.0 ,             0.0 ,                 0.0 ,                 0.0 ,        0.0 ,0.7527030058294012     ,            0.0 ,            0.0 ,            0.0 ,              0.0 ,                   0.0 ,  0.0 ,0.0 , 441.5682051365801   ,1.0                ,0.0 ,-98.07482263415821  ,-184.1886302852633  ,-2.0899144608823477     ,-93.0317162456163   ,          0.0 ,          0.0 ,-98.01889745663317  ,-184.24457307812992 ,-93.0317162456163   ,-375.29524902596756 , 51.289379889552166  ,125.09841636399888  , 88.83580872362123   ,-93.08418827895457    ,-179.1979838037329  ,-2.0899144608823477     ,-88.04107689371409  ,          0.0 ,          0.0 ,-93.02824082942969   ,-179.25392615504188 ,-88.04107689371409  ,-360.32328390253275 , 51.289379889552166  ,120.10774464518241   , 88.83580872362123   ,-1.8076668169563233e-06 ,5.17598948328299e-07    ,-4.993598748276659e-07  ,      0.0 ,      0.0 ,      0.0 ,5.441466933430749e-07   ,-1.8342144875839141e-06 ,      0.0 ,-1.2900678934237528e-06 ,1.247728980551658e-06  ,0.40747609727815204  ,0.046643390811137525    ,-4.394790094109229e-07  ,-7.745163980796147e-09  ,1.2793282536613966e-07 ,24.476034071690396     ,0.0 ,62.719970164067774    ,3.7304566916746444      ,        0.0 ,        0.0 , 0.0
 0.0 ,0.0 ,           0.0 ,            0.0 ,            0.0 ,            0.0 ,              0.0 ,                   0.0 , 589.0 ,48.08656 ,-10.06955 ,           0.0 ,           0.0 ,       0.0 ,86.13512       ,-18.68306   ,-0.01533794      ,0.001765953      ,                 0.0 ,             0.0 ,             0.0 ,                 0.0 ,                 0.0 ,        0.0 ,2.0                    ,            0.0 ,            0.0 ,            0.0 ,              0.0 ,                   0.0 ,  0.0 ,0.0 , 451.9282419416031   ,1.0                ,0.0 ,-97.46738789048418  ,-182.77487583116968 ,-1.1813213606151156     ,-92.31680688436963  ,          0.0 ,          0.0 ,-97.42086527436486  ,-182.82143175388248 ,-92.31680688436963  ,-372.55909887403396 , 50.851671713233145  ,124.18638849574032  , 88.07767346649345   ,-92.47647241785415    ,-177.78401510144917 ,-1.1813213606151156     ,-87.32589627994679  ,          0.0 ,          0.0 ,-92.42996295399642   ,-177.83048818361775 ,-87.32589627994679  ,-357.5863672311412  , 50.851671713233145  ,119.19546115283282   , 88.07767346649345   ,-4.1907106136466595e-06 ,1.3783476414406627e-06  ,-8.857323133914317e-07  ,      0.0 ,      0.0 ,      0.0 ,1.421677507754377e-06   ,-4.234040479960374e-06  ,      0.0 ,-2.812362989365453e-06  ,2.9463356402749424e-06 ,0.13577735652035042  ,0.010296582475366826    ,-1.440348528060378e-07  ,9.382560595629412e-10   ,7.126686377078033e-07  ,74.77130226424414      ,0.0 ,12.760457016419968    ,0.8097326315220307      ,        0.0 ,        0.0 , 0.0
 0.0 ,0.0 ,           0.0 ,            0.0 ,            0.0 ,            0.0 ,              0.0 ,                   0.0 , 590.0 ,49.97765 ,-10.05268 ,           0.0 ,           0.0 ,       0.0 ,86.26903       ,-18.67958   ,-0.001118419     ,-0.0004941275    ,                 0.0 ,             0.0 ,             0.0 ,                 0.0 ,                 0.0 ,        0.0 ,2.2298627988807675     ,            0.0 ,            0.0 ,            0.0 ,              0.0 ,                   0.0 ,  0.0 ,0.0 , 475.71143187392056  ,1.0                ,0.0 ,-95.56939099593248  ,-181.70599771898668 ,0.4514928649070799      ,-91.4969327244196   ,          0.0 ,          0.0 ,-95.53758690324648  ,-181.73781901122803 ,-91.4969327244196   ,-368.7723412993464  , 50.975690338533184  ,122.92411450588843  , 88.29248226531504   ,-90.5778043610222     ,-176.7144592291122  ,0.4514928649070799      ,-86.50536393087373  ,          0.0 ,          0.0 ,-90.54602351244462   ,-176.74620350763342 ,-86.50536393087373  ,-353.7976006251241  , 50.975690338533184  ,117.93255081141515   , 88.29248226531504   ,-4.178702010345186e-06  ,1.5889520788304366e-06  ,2.752289582416888e-08   ,      0.0 ,      0.0 ,      0.0 ,1.6336416231129254e-06  ,-4.2233917844904735e-06 ,      0.0 ,-2.5897499315147495e-06 ,3.0227550404871613e-06 ,0.3027897865024073   ,0.03287588855524704     ,-4.805869875522602e-07  ,2.9955723103423928e-09  ,3.095409042795302e-07  ,46.64792523930625      ,0.0 ,40.740340886802144    ,2.5852352617876773      ,        0.0 ,        0.0 , 0.0
 0.0 ,0.0 ,           0.0 ,            0.0 ,            0.0 ,            0.0 ,              0.0 ,                   0.0 , 591.0 ,51.85935 ,-9.921463 ,           0.0 ,           0.0 ,       0.0 ,87.54575       ,-18.67604   ,0.01223293       ,0.001751287      ,                 0.0 ,             0.0 ,             0.0 ,                 0.0 ,                 0.0 ,        0.0 ,0.9916833018539482     ,            0.0 ,            0.0 ,            0.0 ,              0.0 ,                   0.0 ,  0.0 ,0.0 , 477.11425347330913  ,1.0                ,0.0 ,-94.20355928465813  ,-179.4477194264172  ,1.8604713495191494      ,-90.33707745143552  ,          0.0 ,          0.0 ,-94.16007514250302  ,-179.4912040464544  ,-90.33707745143552  ,-363.9884012385483  , 50.406557549339674  ,121.32945035388482  , 87.30671713178974   ,-89.21186193448426    ,-174.4560919080598  ,1.8604713495191494      ,-85.34539442694674  ,          0.0 ,          0.0 ,-89.16839705253665   ,-174.49952670499087 ,-85.34539442694674  ,-349.0133183296885  , 50.406557549339674  ,116.33777265863358   , 87.30671713178974   ,-2.0326415438709077e-06 ,8.349992213959867e-07   ,-4.799994072752221e-08  ,      0.0 ,      0.0 ,      0.0 ,8.35358535757989e-07    ,-2.0330008567992637e-06 ,      0.0 ,-1.1976423176960998e-06 ,1.4753587101662925e-06 ,0.29290587575753313  ,0.0316950872766777      ,-4.6757065742785805e-07 ,2.8901240242969006e-09  ,1.2720203863806863e-07 ,49.118422771040564     ,0.0 ,39.100397686259605    ,2.4861061180253357      ,        0.0 ,        0.0 , 0.0
 0.0 ,0.0 ,           0.0 ,            0.0 ,            0.0 ,            0.0 ,              0.0 ,                   0.0 , 592.0 ,53.73465 ,-9.725559 ,           0.0 ,           0.0 ,       0.0 ,89.46881       ,-18.67244   ,0.007439098      ,0.0004362643     ,                 0.0 ,             0.0 ,             0.0 ,                 0.0 ,                 0.0 ,        0.0 ,0.2514793461504558     ,            0.0 ,            0.0 ,            0.0 ,              0.0 ,                   0.0 ,  0.0 ,0.0 , 442.58356938444945  ,1.0                ,0.0 ,-94.81973522375168  ,-177.75525002685026 ,2.0983423722181658      ,-89.83489216910473  ,          0.0 ,          0.0 ,-94.76463176334428  ,-177.8103308911534  ,-89.83489216910473  ,-362.40990667939445 , 49.434805233404504  ,120.80330267062374  , 85.62359415032307   ,-89.82834381703704    ,-172.76391067601224 ,2.0983423722181658      ,-84.84352846215506  ,          0.0 ,          0.0 ,-89.77326550456426   ,-172.81899154031538 ,-84.84352846215506  ,-347.4357909214647  , 49.434805233404504  ,115.81191398602405   , 85.62359415032307   ,-7.654970941776799e-07  ,1.4522004281401525e-07  ,-1.4525897181679937e-07 ,      0.0 ,      0.0 ,      0.0 ,1.5097585179283767e-07  ,-7.712527019730253e-07  ,      0.0 ,-6.20276825032253e-07   ,4.946598738779466e-07  ,0.175281532734129    ,0.012676976584616789    ,-6.27633573181918e-08   ,-1.2619760684158274e-09 ,3.8405189984847783e-07 ,64.34559854813386      ,0.0 ,25.651228577083028    ,1.274339686574436       ,        0.0 ,        0.0 , 0.0
 0.0 ,0.0 ,           0.0 ,            0.0 ,            0.0 ,            0.0 ,              0.0 ,                   0.0 , 593.0 ,55.61045 ,-9.463627 ,           0.0 ,           0.0 ,       0.0 ,92.05167       ,-18.66879   ,0.006707237      ,0.0008268756     ,                 0.0 ,             0.0 ,             0.0 ,                 0.0 ,                 0.0 ,        0.0 ,1.7968008506533826     ,            0.0 ,            0.0 ,            0.0 ,              0.0 ,                   0.0 ,  0.0 ,0.0 , 444.27119774694336  ,0.9999999999999999 ,0.0 ,-92.43517720539552  ,-174.06601460413427 ,2.300499145940638       ,-87.91721361892688  ,          0.0 ,          0.0 ,-92.36885370329819  ,-174.13232089656952 ,-87.91721361892688  ,-354.4183990540603  , 48.54498590546341   ,118.13949143933462  , 84.08239262000312   ,-87.44351269237713    ,-169.07435848143407 ,2.300499145940638       ,-82.92555663230286  ,          0.0 ,          0.0 ,-87.37718919027978   ,-169.14068950992578 ,-82.92555663230286  ,-339.4434521581712  , 48.54498590546341   ,113.14783368471194   , 84.08239262000312   ,-1.916232715761489e-06  ,5.166394720526337e-07   ,3.4120794717957113e-07  ,      0.0 ,      0.0 ,      0.0 ,5.306993559294161e-07   ,-1.9302925996382714e-06 ,      0.0 ,-1.3995931447646296e-06 ,1.2971411862412694e-06 ,0.3970312762659242   ,0.04374486524715624     ,-7.933082180927453e-07  ,-6.782489417872648e-09  ,6.97949327482298e-08   ,27.745627508359007     ,0.0 ,64.82835154693075     ,3.6747513440406308      ,        0.0 ,        0.0 , 0.0
 0.0 ,0.0 ,           0.0 ,            0.0 ,            0.0 ,            0.0 ,              0.0 ,                   0.0 , 594.0 ,57.50776 ,-9.243239 ,           0.0 ,           0.0 ,       0.0 ,94.21832       ,-18.66507   ,0.005247391      ,0.0005882988     ,                 0.0 ,             0.0 ,             0.0 ,                 0.0 ,                 0.0 ,        0.0 ,3.104739892077104      ,            0.0 ,            0.0 ,            0.0 ,              0.0 ,                   0.0 ,  0.0 ,0.0 , 444.2800020724074   ,1.0                ,0.0 ,-90.5458636449483   ,-170.58095910371742 ,2.5036250986671313      ,-86.18843780778768  ,          0.0 ,          0.0 ,-90.4644271379214   ,-170.66243332274576 ,-86.18843780778768  ,-347.31529677869514 , 47.58736004840858   ,115.77177879101669  , 82.42372276985475   ,-85.55360288799048    ,-165.58872335549563 ,2.5036250986671313      ,-81.19615832814526  ,          0.0 ,          0.0 ,-85.47214147275304   ,-165.6701843379941  ,-81.19615832814526  ,-332.3384774951914  , 47.58736004840858   ,110.77949947748101   , 82.42372276985475   ,-4.304251820926406e-06  ,1.3269996522891937e-06  ,6.872020551049399e-07   ,      0.0 ,      0.0 ,      0.0 ,1.3557804583579852e-06  ,-4.333032577178775e-06  ,      0.0 ,-2.9772521935454223e-06 ,2.9737125401001415e-06 ,0.23104011268868252  ,0.024852571308082865    ,-4.19205871246552e-07   ,-6.679177802727043e-09  ,1.6372827410379908e-07 ,65.08701171224638      ,0.0 ,30.893907265417656    ,1.902993797799293       ,        0.0 ,        0.0 , 0.0
 0.0 ,0.0 ,           0.0 ,            0.0 ,            0.0 ,            0.0 ,              0.0 ,                   0.0 , 595.0 ,59.42138 ,-9.06345  ,           0.0 ,           0.0 ,       0.0 ,95.9784        ,-18.66129   ,0.004318413      ,0.0003841721     ,                 0.0 ,             0.0 ,             0.0 ,                 0.0 ,                 0.0 ,        0.0 ,1.601367935234498      ,            0.0 ,            0.0 ,            0.0 ,              0.0 ,                   0.0 ,  0.0 ,0.0 , 444.90855607870867  ,1.0                ,0.0 ,-88.7900896450794   ,-167.36412820999388 ,2.7633180501477934      ,-84.5932961497091   ,          0.0 ,          0.0 ,-88.68679894436869  ,-167.4674767491831  ,-84.5932961497091   ,-340.74754516000905 , 46.713625257266145  ,113.58251482522252  , 80.91036721818574   ,-83.7976499464117     ,-162.37170329593366 ,2.7633180501477934      ,-79.60083258411449  ,          0.0 ,          0.0 ,-83.6943342087784    ,-162.47498857200245 ,-79.60083258411449  ,-325.7702087917166  , 46.713625257266145  ,108.5900716165677    , 80.91036721818574   ,-4.010633997015329e-06  ,1.254222117133586e-06   ,1.258503692910412e-06   ,      0.0 ,      0.0 ,      0.0 ,1.3434508715773346e-06  ,-4.099862701385234e-06  ,      0.0 ,-2.7564119049186665e-06 ,2.838420767614902e-06  ,0.45932816566532264  ,0.047869949417896816    ,-5.262105477494258e-07  ,-9.953994430059901e-09  ,3.096929470846217e-08  ,12.311245150733678     ,0.0 ,85.51682131407381     ,4.408113695288048       ,        0.0 ,        0.0 , 0.0
 0.0 ,0.0 ,           0.0 ,            0.0 ,            0.0 ,            0.0 ,              0.0 ,                   0.0 , 596.0 ,61.34306 ,-8.903349 ,           0.0 ,           0.0 ,       0.0 ,97.54118       ,-18.65747   ,0.005175504      ,0.0001345867     ,                 0.0 ,             0.0 ,             0.0 ,                 0.0 ,                 0.0 ,        0.0 ,2.540615942235899      ,            0.0 ,            0.0 ,            0.0 ,              0.0 ,                   0.0 ,  0.0 ,0.0 , 444.76899324837007  ,1.0                ,0.0 ,-87.41545981248379  ,-164.25870341868622 ,2.9411295841396212      ,-83.12551078405782  ,          0.0 ,          0.0 ,-87.29717881531234  ,-164.37701662013112 ,-83.12551078405782  ,-334.7996855924761  , 45.75958734583415   ,111.59990019194679  , 79.25794304596938   ,-82.42254961154285    ,-159.2658321157172  ,2.9411295841396212      ,-78.13260058311687  ,          0.0 ,          0.0 ,-82.30426861437138   ,-159.3840966710268  ,-78.13260058311687  ,-319.8209991417624  , 45.75958734583415   ,106.60698999100585   , 79.25794304596938   ,-4.0970651648029936e-06 ,1.2080081752504338e-06  ,1.5247086163938222e-06  ,      0.0 ,      0.0 ,      0.0 ,1.3255687716452131e-06  ,-4.214625736114595e-06  ,      0.0 ,-2.8890569143030245e-06 ,2.8976197241391798e-06 ,0.27425406388906454  ,0.02228740449577916     ,-1.0855817195376704e-07 ,-3.1552019538038593e-09 ,2.8457230645636474e-07 ,46.49253973234583      ,0.0 ,53.03289779803649     ,2.4297523543777286      ,        0.0 ,        0.0 , 0.0
 0.0 ,0.0 ,           0.0 ,            0.0 ,            0.0 ,            0.0 ,              0.0 ,                   0.0 , 597.0 ,63.26804 ,-8.751248 ,           0.0 ,           0.0 ,       0.0 ,99.02355       ,-18.6536    ,0.006883807      ,-9.017847e-05    ,                 0.0 ,             0.0 ,             0.0 ,                 0.0 ,                 0.0 ,        0.0 ,2.207573383035007      ,            0.0 ,            0.0 ,            0.0 ,              0.0 ,                   0.0 ,  0.0 ,0.0 , 445.7376760530683   ,1.0                ,0.0 ,-85.81953692328041  ,-161.21132633301664 ,3.3641494117239805      ,-81.62983715347542  ,          0.0 ,          0.0 ,-85.66547306907587  ,-161.36540748660474 ,-81.62983715347542  ,-328.66067788673917 , 44.92458783278066   ,109.55356604191482  , 77.8116680711671    ,-80.82642463869202    ,-156.21819707684153 ,3.3641494117239805      ,-76.63672486888703  ,          0.0 ,          0.0 ,-80.6723607844875    ,-156.3722782304296  ,-76.63672486888703  ,-313.68133907674286 , 44.92458783278066   ,104.56045375732643   , 77.8116680711671    ,-2.9141627997504164e-06 ,8.183246769223346e-07   ,1.236486844040387e-06   ,      0.0 ,      0.0 ,      0.0 ,9.19947654141273e-07    ,-3.0157858766622447e-06 ,      0.0 ,-2.0958382972906393e-06 ,2.061077981877099e-06  ,0.05142245209390313  ,-3.470089979673142e-07  ,-1.2600540143832639e-08 ,0.0                     ,3.472473301826531e-07  ,100.46528370747536     ,0.0 ,0.0                   ,0.0                     ,        0.0 ,        0.0 , 0.0
 0.0 ,0.0 ,           0.0 ,            0.0 ,            0.0 ,            0.0 ,              0.0 ,                   0.0 , 598.0 ,65.19427 ,-8.602968 ,           0.0 ,           0.0 ,       0.0 ,100.4672       ,-18.64968   ,0.009929639      ,-0.0001573018    ,                 0.0 ,             0.0 ,             0.0 ,                 0.0 ,                 0.0 ,        0.0 ,2.003244793147081      ,            0.0 ,            0.0 ,            0.0 ,              0.0 ,                   0.0 ,  0.0 ,0.0 , 484.4377411116665   ,1.0                ,0.0 ,-82.16336390656244  ,-158.53237346404939 ,4.250356843580173       ,-79.84594874616334  ,          0.0 ,          0.0 ,-81.92720257924219  ,-158.7685497767942  ,-79.84594874616334  ,-320.54170620696993 , 44.97773003201093   ,106.84722536144241  , 77.90371396902175   ,-77.16955215232815    ,-153.53858670238867 ,4.250356843580173       ,-74.85213699192904  ,          0.0 ,          0.0 ,-76.9333908250079    ,-153.77476301513354 ,-74.85213699192904  ,-305.5602458504978  , 44.97773003201093   ,101.85343362150614   , 77.90371396902175   ,-1.922878164665948e-06  ,6.190549127379236e-07   ,1.5805233152444642e-06  ,      0.0 ,      0.0 ,      0.0 ,8.448579693581799e-07   ,-2.148681222012201e-06  ,      0.0 ,-1.3038232531985181e-06 ,1.5433993550538304e-06 ,0.049575988229881504 ,-2.90793514510998e-07   ,-1.6145640997420704e-08 ,0.0                     ,2.912418471422067e-07  ,101.40446109284252     ,0.0 ,0.0                   ,0.0                     ,        0.0 ,        0.0 , 0.0
 0.0 ,0.0 ,           0.0 ,            0.0 ,            0.0 ,            0.0 ,              0.0 ,                   0.0 , 599.0 ,67.12053 ,-8.456283 ,           0.0 ,           0.0 ,       0.0 ,101.8938       ,-18.64567   ,0.01517886       ,-0.0002176943    ,                 0.0 ,             0.0 ,             0.0 ,                 0.0 ,                 0.0 ,        0.0 ,2.4875570925866457     ,            0.0 ,            0.0 ,            0.0 ,              0.0 ,                   0.0 ,  0.0 ,0.0 , 486.29448920282374  ,1.0                ,0.0 ,-80.24043943541369  ,-156.1840969005176  ,4.788351822093931       ,-78.51647861026845  ,          0.0 ,          0.0 ,-79.93672588432226  ,-156.48780049259116 ,-78.51647861026845  ,-314.9410496144595  , 44.61276002562656   ,104.9803250510291   , 77.27156322110616   ,-75.24640001950374    ,-151.19008736024918 ,4.788351822093931       ,-73.52243919435848  ,          0.0 ,          0.0 ,-74.94268646841229   ,-151.49379095232274 ,-73.52243919435848  ,-299.9588718224753  , 44.61276002562656   , 99.98631046928432   , 77.27156322110616   ,-3.6937388155407964e-06 ,1.1731490507273481e-06  ,3.145180250882013e-06   ,      0.0 ,      0.0 ,      0.0 ,1.6375114496245702e-06  ,-4.1581007144309575e-06 ,      0.0 ,-2.5205892648063873e-06 ,2.987762579700789e-06  ,0.27801856637706845  ,0.02204591966249176     ,-1.138468856552993e-07  ,-1.572421281299916e-08  ,1.9163181526447158e-07 ,46.274003855048186     ,0.0 ,57.58884026087358     ,2.5183269019863053      ,        0.0 ,        0.0 , 0.0
 0.0 ,0.0 ,           0.0 ,            0.0 ,            0.0 ,            0.0 ,              0.0 ,                   0.0 , 600.0 ,69.04606 ,-8.310213 ,           0.0 ,           0.0 ,       0.0 ,103.3128       ,-18.6415    ,0.0220563        ,9.015423e-05     ,                 0.0 ,             0.0 ,             0.0 ,                 0.0 ,                 0.0 ,        0.0 ,1.991672058064633      ,            0.0 ,            0.0 ,            0.0 ,              0.0 ,                   0.0 ,  0.0 ,0.0 , 487.2957079537581   ,1.0                ,0.0 ,-78.03819618094164  ,-154.2355728658204  ,5.279805386474287       ,-77.27539103807855  ,          0.0 ,          0.0 ,-77.67361495601844  ,-154.60018363468728 ,-77.27539103807855  ,-309.54918491894193 , 44.53014834695128   ,103.1830433765937   , 77.12848571725081   ,-73.04415584769214    ,-149.2415624492915  ,5.279805386474287       ,-72.28135070482904  ,          0.0 ,          0.0 ,-72.67957462276892   ,-149.60612363455547 ,-72.28135070482904  ,-294.5670536693552  , 44.53014834695128   , 98.1890229177649    , 77.12848571725081   ,-2.5137394645480902e-06 ,6.858681154400393e-07   ,3.7905962228609758e-06  ,      0.0 ,      0.0 ,      0.0 ,1.6485317653460768e-06  ,-3.4764032091003793e-06 ,      0.0 ,-1.8278714437543025e-06 ,2.61998071889424e-06   ,0.050383180956779086 ,0.00017862450261747978  ,-4.425253890944861e-08  ,-1.2814049975297423e-10 ,5.635275442581209e-07  ,103.70865541508783     ,0.0 ,0.46815212292347674   ,0.020470183150317785    ,        0.0 ,        0.0 , 0.0
 0.0 ,0.0 ,           0.0 ,            0.0 ,            0.0 ,            0.0 ,              0.0 ,                   0.0 , 601.0 ,70.97029 ,-8.164191 ,           0.0 ,           0.0 ,       0.0 ,104.7291       ,-18.6371    ,0.02507116       ,-0.0008565265    ,                 0.0 ,             0.0 ,             0.0 ,                 0.0 ,                 0.0 ,        0.0 ,0.9956611307584535     ,            0.0 ,            0.0 ,            0.0 ,              0.0 ,                   0.0 ,  0.0 ,0.0 , 488.29362770387604  ,1.0                ,0.0 ,-75.56866092192764  ,-152.56214853188982 ,5.326541972532326       ,-76.09770403217196  ,          0.0 ,          0.0 ,-75.20134084801651  ,-152.92945351696187 ,-76.09770403217196  ,-304.2285333165581  , 44.62195638561342   ,101.40952762134103  , 77.28749811091689   ,-70.57443213371369    ,-147.567939439955   ,5.326541972532326       ,-71.10348020263102  ,          0.0 ,          0.0 ,-70.20711201641386   ,-147.93524485891396 ,-71.10348020263102  ,-289.2458069085275  , 44.62195638561342   , 96.41528887239232   , 77.28749811091689   ,-1.42663955453974e-06   ,3.977141599282916e-07   ,1.9368662675555377e-06  ,      0.0 ,      0.0 ,      0.0 ,8.161001674211148e-07   ,-1.8450255616399107e-06 ,      0.0 ,-1.028925394218796e-06  ,1.3633188519397716e-06 ,0.5204056472379888   ,0.04767866959804551     ,-3.900642817687976e-07  ,-6.347561665492058e-08  ,8.472371239168726e-10  ,0.4534560394420102     ,0.0 ,104.78237650905558    ,4.97461207220614        ,        0.0 ,        0.0 , 0.0
 0.0 ,0.0 ,           0.0 ,            0.0 ,            0.0 ,            0.0 ,              0.0 ,                   0.0 , 602.0 ,72.89279 ,-8.017586 ,           0.0 ,           0.0 ,       0.0 ,106.148        ,-18.63239   ,0.02893855       ,-0.001205166     ,                 0.0 ,             0.0 ,             0.0 ,                 0.0 ,                 0.0 ,        0.0 ,1.9926285696783923     ,            0.0 ,            0.0 ,            0.0 ,              0.0 ,                   0.0 ,  0.0 ,0.0 , 489.2911832744121   ,1.0                ,0.0 ,-73.10036849671287  ,-150.72465388840686 ,4.859183293122702       ,-74.88619418109103  ,          0.0 ,          0.0 ,-72.79537145631058  ,-151.0296756667122  ,-74.88619418109103  ,-298.7112314515424  , 44.57935098367121   , 99.57042701400073  , 77.21370146268607   ,-68.10594584647426    ,-145.7302460661731  ,4.859183293122702       ,-69.89177648989839  ,          0.0 ,          0.0 ,-67.80094876921481   ,-146.03526821305    ,-69.89177648989839  ,-283.72795831244395 , 44.57935098367121   , 94.57600432690495   , 77.21370146268607   ,-2.9799121566607087e-06 ,7.315678649218936e-07   ,3.472148776428632e-06   ,      0.0 ,      0.0 ,      0.0 ,1.4246649004738792e-06  ,-3.6730085443831544e-06 ,      0.0 ,-2.2483441443189627e-06 ,2.630641556012137e-06  ,0.04877902406792958  ,0.00016007201112973855  ,-1.2725015808140063e-07 ,-1.5436114179241543e-10 ,5.042875757308386e-07  ,106.66599925965626     ,0.0 ,0.4226346917736103    ,0.018411083399866347    ,        0.0 ,        0.0 , 0.0
 0.0 ,0.0 ,           0.0 ,            0.0 ,            0.0 ,            0.0 ,              0.0 ,                   0.0 , 603.0 ,74.81343 ,-7.869086 ,           0.0 ,           0.0 ,       0.0 ,107.5817       ,-18.62726   ,0.02885044       ,-0.0009555325    ,                 0.0 ,             0.0 ,             0.0 ,                 0.0 ,                 0.0 ,        0.0 ,1.4980498597617085     ,            0.0 ,            0.0 ,            0.0 ,              0.0 ,                   0.0 ,  0.0 ,0.0 , 448.69292159517454  ,1.0                ,0.0 ,-68.84839608344397  ,-148.6597534047467  ,4.770015419157152       ,-73.25291509086847  ,          0.0 ,          0.0 ,-68.54373726980684  ,-148.96438015304443 ,-73.25291509086847  ,-290.76103495590235 , 45.137421818056424  , 96.92033498182161  , 78.18030711927351   ,-63.85420936917904    ,-143.665535118994   ,4.770015419157152       ,-68.25872346367302  ,          0.0 ,          0.0 ,-63.54954564261139   ,-143.97021099659688 ,-68.25872346367302  ,-275.7784525840667  , 45.137421818056424  , 91.92614826755668   , 78.18030711927351   ,-2.389122606242108e-06  ,5.550638812177424e-07   ,2.3207776739637953e-06  ,      0.0 ,      0.0 ,      0.0 ,9.574431708673442e-07   ,-2.7915018628673106e-06 ,      0.0 ,-1.8340589497318445e-06 ,1.947835528604848e-06  ,0.43055979719491766  ,0.03641014854301129     ,-3.948016146400472e-07  ,-1.1617504078114153e-07 ,1.0822723423116577e-07 ,30.114707468952254     ,0.0 ,78.12796976422341     ,3.706706631589055       ,        0.0 ,        0.0 , 0.0
 0.0 ,0.0 ,           0.0 ,            0.0 ,            0.0 ,            0.0 ,              0.0 ,                   0.0 , 604.0 ,76.73327 ,-7.716923 ,           0.0 ,           0.0 ,       0.0 ,109.0461       ,-18.62154   ,0.02388767       ,-0.001339048     ,                 0.0 ,             0.0 ,             0.0 ,                 0.0 ,                 0.0 ,        0.0 ,1.5177188403995014     ,            0.0 ,            0.0 ,            0.0 ,              0.0 ,                   0.0 ,  0.0 ,0.0 , 450.1190166452007   ,1.0                ,0.0 ,-65.42838316976197  ,-146.55278318300043 ,3.491684597208466       ,-71.78676274815544  ,          0.0 ,          0.0 ,-65.26093938967517  ,-146.72025268233259 ,-71.78676274815544  ,-283.7679378724016  , 45.279545031683995  , 94.58931172484667  , 78.426469177439     ,-60.43393186126999    ,-141.55832503173409 ,3.491684597208466       ,-66.7923087418018   ,          0.0 ,          0.0 ,-60.26648538332154   ,-141.72579671641483 ,-66.7923087418018   ,-268.7845925825674  , 45.279545031683995  , 89.59487033366176   , 78.426469177439     ,-3.0739164982596146e-06 ,5.891474865601548e-07   ,2.3185653381912198e-06  ,      0.0 ,      0.0 ,      0.0 ,9.420653640814795e-07   ,-3.4268347253674747e-06 ,      0.0 ,-2.484769045765612e-06  ,2.2999327701079487e-06 ,0.571864642467617    ,0.046390323822135794    ,-5.253230554601436e-07  ,-2.302064322384703e-07  ,0.0                    ,5.758114899862331e-07  ,0.0 ,110.47370048431756    ,4.99445189708619        ,        0.0 ,        0.0 , 0.0
 0.0 ,0.0 ,           0.0 ,            0.0 ,            0.0 ,            0.0 ,              0.0 ,                   0.0 , 605.0 ,78.65132 ,-7.553493 ,           0.0 ,           0.0 ,       0.0 ,110.6144       ,-18.61494   ,0.01355357       ,-0.0004022989    ,                 0.0 ,             0.0 ,             0.0 ,                 0.0 ,                 0.0 ,        0.0 ,0.5038089650348335     ,            0.0 ,            0.0 ,            0.0 ,              0.0 ,                   0.0 ,  0.0 ,0.0 , 491.5895332591434   ,1.0                ,0.0 ,-66.22012172711527  ,-143.8977637634814  ,1.0529573789929303      ,-70.92554513683814  ,          0.0 ,          0.0 ,-66.1938990773667   ,-143.92403130808816 ,-70.92554513683814  ,-281.04342554444116 , 43.57624000509383   , 93.68114180474356  , 75.47626219943456   ,-61.22522723646848    ,-138.90286925786663 ,1.0529573789929303      ,-65.93065064619134  ,          0.0 ,          0.0 ,-61.19900458671991   ,-138.92913680247335 ,-65.93065064619134  ,-266.0587920373316  , 43.57624000509383   , 88.68625231507025   , 75.47626219943456   ,-1.608767007446415e-06  ,2.524424059294952e-07   ,1.26650741282235e-06    ,      0.0 ,      0.0 ,      0.0 ,4.478596011826056e-07   ,-1.8041843531911625e-06 ,      0.0 ,-1.3563245025780727e-06 ,1.1921565814891665e-06 ,0.2964430903731382   ,0.020729048165438337    ,-2.753492019554362e-07  ,-9.658015564200268e-08  ,2.3685640611086314e-07 ,51.37950164503416      ,0.0 ,60.243714023281       ,2.497362330399176       ,        0.0 ,        0.0 , 0.0
 0.0 ,0.0 ,           0.0 ,            0.0 ,            0.0 ,            0.0 ,              0.0 ,                   0.0 , 606.0 ,80.57105 ,-7.364311 ,           0.0 ,           0.0 ,       0.0 ,112.4265       ,-18.60696   ,-0.001308272     ,-0.0009941339    ,                 0.0 ,             0.0 ,             0.0 ,                 0.0 ,                 0.0 ,        0.0 ,2.001434083282771      ,            0.0 ,            0.0 ,            0.0 ,              0.0 ,                   0.0 ,  0.0 ,0.0 , 491.00685173825013  ,0.9999999999999999 ,0.0 ,-64.32665979259302  ,-140.42531190869272 ,-0.3260191557019322     ,-69.15415179674893  ,          0.0 ,          0.0 ,-64.32105340802002  ,-140.43093817377067 ,-69.15415179674893  ,-273.9061183845179  , 42.61690986736827   , 91.30203780240709  , 73.81465725857277   ,-59.33165531950009    ,-135.430327036494   ,-0.3260191557019322     ,-64.159147323656    ,          0.0 ,          0.0 ,-59.32604893492708   ,-135.43595330157194 ,-64.159147323656    ,-258.92111497479374 , 42.61690986736827   , 86.3070385097489    , 73.81465725857277   ,-2.052532901450987e-06  ,2.911654571928234e-07   ,3.1520583888602724e-07  ,      0.0 ,      0.0 ,      0.0 ,3.0176383950935974e-07  ,-2.0631314870655593e-06 ,      0.0 ,-1.7613674940311297e-06 ,1.287159137301673e-06  ,0.2965582721746607   ,0.02032973295798813     ,-3.1618537312553894e-07 ,-1.3239157564152637e-07 ,2.353954165801634e-07  ,51.062580088579686     ,0.0 ,62.24845342791215     ,2.512878227394996       ,        0.0 ,        0.0 , 0.0
 0.0 ,0.0 ,           0.0 ,            0.0 ,            0.0 ,            0.0 ,              0.0 ,                   0.0 , 607.0 ,82.4989  ,-7.119495 ,           0.0 ,           0.0 ,       0.0 ,114.7714       ,-18.59664   ,-0.01115995      ,-0.001324665     ,                 0.0 ,             0.0 ,             0.0 ,                 0.0 ,                 0.0 ,        0.0 ,2.9894767259132653     ,            0.0 ,            0.0 ,            0.0 ,              0.0 ,                   0.0 ,  0.0 ,0.0 , 494.54523332522933  ,1.0                ,0.0 ,-62.47091094152854  ,-135.381700894604   ,-1.6525966025070313     ,-66.73486885622765  ,          0.0 ,          0.0 ,-62.42752655367323  ,-135.42507958649935 ,-66.73486885622765  ,-264.5874607861041  , 40.9598626465727    , 88.19582021133314  , 70.94456689368354   ,-57.47562374443041    ,-130.386438434424   ,-1.6525966025070313     ,-61.739581787798244 ,          0.0 ,          0.0 ,-57.43224440919147   ,-130.42981712631936 ,-61.739581787798244 ,-249.60157445789156 , 40.9598626465727    , 83.20053793818266   , 70.94456689368354   ,-3.22743906477961e-06   ,6.281902591889458e-07   ,1.871343002160872e-06   ,      0.0 ,      0.0 ,      0.0 ,9.648929155366268e-07   ,-3.5641416313059007e-06 ,      0.0 ,-2.599248554480893e-06  ,2.395747548339001e-06  ,0.539688625358808    ,0.042801054882902874    ,-7.901794099124535e-07  ,-6.720468156440963e-07  ,1.5906014408610614e-08 ,1.6266528757887282     ,0.0 ,114.31802923582336    ,4.930999568351114       ,        0.0 ,        0.0 , 0.0
 0.0 ,0.0 ,           0.0 ,            0.0 ,            0.0 ,            0.0 ,              0.0 ,                   0.0 , 608.0 ,84.4332  ,-6.791192 ,           0.0 ,           0.0 ,       0.0 ,117.9104       ,-18.58223   ,-0.01890252      ,0.001523538      ,                 0.0 ,             0.0 ,             0.0 ,                 0.0 ,                 0.0 ,        0.0 ,2.9399254908735406     ,            0.0 ,            0.0 ,            0.0 ,              0.0 ,                   0.0 ,  0.0 ,0.0 , 497.1380116800741   ,1.0                ,0.0 ,-59.8890504349812   ,-128.7435304402998  ,-2.457742295014084      ,-63.517870009649855 ,          0.0 ,          0.0 ,-59.79751927034855  ,-128.83505001736143 ,-63.517870009649855 ,-252.1504272474192  , 38.832498793075345  , 84.05014517162371  , 67.25986149505704   ,-54.893521311260386   ,-123.74799262540128 ,-2.457742295014084      ,-58.52234583226298  ,          0.0 ,          0.0 ,-54.80199039333422   ,-123.83951043226989 ,-58.52234583226298  ,-237.16385725861215 , 38.832498793075345  , 79.0546160479029    , 67.25986149505704   ,-2.9013971852595315e-06 ,5.69985193720403e-07    ,1.3039891737129927e-06  ,      0.0 ,      0.0 ,      0.0 ,8.404095303796212e-07   ,-3.1718220066838837e-06 ,      0.0 ,-2.33141197636029e-06   ,2.1236971384584253e-06 ,0.05041996728056252  ,0.0006849308298807269   ,-7.662872522075394e-07  ,-2.720533553199176e-08  ,1.1349913495958424e-06 ,116.69075290073121     ,0.0 ,2.28291882307983      ,0.08844319857369405     ,        0.0 ,        0.0 , 0.0
 0.0 ,0.0 ,           0.0 ,            0.0 ,            0.0 ,            0.0 ,              0.0 ,                   0.0 , 609.0 ,86.37356 ,-6.684648 ,           0.0 ,           0.0 ,       0.0 ,118.7935       ,-18.56399   ,-0.01599962      ,-0.0001461581    ,                 0.0 ,             0.0 ,             0.0 ,                 0.0 ,                 0.0 ,        0.0 ,2.9994299892765603     ,            0.0 ,            0.0 ,            0.0 ,              0.0 ,                   0.0 ,  0.0 ,0.0 , 495.59739247027306  ,1.0                ,0.0 ,-59.73499306681038  ,-126.46182227623774 ,-3.177970697457211      ,-62.52780103307645  ,          0.0 ,          0.0 ,-59.5814023535472   ,-126.61544286460982 ,-62.52780103307645  ,-248.72462133647943 , 37.88042797173826   , 82.90820551830366  , 65.61082681406617   ,-54.73944072459304    ,-121.46627965314329 ,-3.177970697457211      ,-57.53224374760453  ,          0.0 ,          0.0 ,-54.585840070925336  ,-121.61985080896969 ,-57.53224374760453  ,-233.73794457360418 , 37.88042797173826   , 77.91265317608634   , 65.61082681406617   ,-2.4332223688353173e-06 ,5.128293848953524e-07   ,1.3447514965384384e-06  ,      0.0 ,      0.0 ,      0.0 ,9.128073866931799e-07   ,-2.8332002739238676e-06 ,      0.0 ,-1.920393235046373e-06  ,1.9720395609492896e-06 ,0.27497507551061223  ,0.019419787086012757    ,-1.2912322670918477e-06 ,-7.732641464688314e-07  ,5.334007824268466e-07  ,55.20741444144878      ,0.0 ,64.40894526714465     ,2.499538875751235       ,        0.0 ,        0.0 , 0.0
 0.0 ,0.0 ,           0.0 ,            0.0 ,            0.0 ,            0.0 ,              0.0 ,                   0.0 , 610.0 ,88.28184 ,-6.43151  ,           0.0 ,           0.0 ,       0.0 ,121.0531       ,-18.53682   ,-0.017571        ,-0.003028223     ,                 0.0 ,             0.0 ,             0.0 ,                 0.0 ,                 0.0 ,        0.0 ,1.0426345900479788     ,            0.0 ,            0.0 ,            0.0 ,              0.0 ,                   0.0 ,  0.0 ,0.0 , 485.2033834521968   ,1.0                ,0.0 ,-57.70379786967804  ,-120.88780443716794 ,-3.1109533624366277     ,-59.89174381434411  ,          0.0 ,          0.0 ,-57.54948886846003  ,-121.04211186770668 ,-59.89174381434411  ,-238.48334169717117 , 36.00141368893098   , 79.49445411968597  , 62.356277312750855  ,-52.70819304315053    ,-115.89219321945802 ,-3.1109533624366277     ,-54.8961389878166   ,          0.0 ,          0.0 ,-52.55388378015263   ,-116.04650326779556 ,-54.8961389878166   ,-223.49651997371444 , 36.00141368893098   , 74.49885060205786   , 62.356277312750855  ,-7.388745628762692e-07  ,3.092775082065751e-07   ,1.707199085031756e-06   ,      0.0 ,      0.0 ,      0.0 ,7.979290664049641e-07   ,-1.2275261184568593e-06 ,      0.0 ,-4.295972019025867e-07  ,1.020717493246896e-06  ,0.49648799664101884  ,0.040295247641850454    ,-1.7308758894816114e-06 ,-1.5815042412649278e-06 ,1.0752231618530374e-07 ,2.4455130155893383     ,0.0 ,118.68736789118343    ,4.864901127825958       ,        0.0 ,        0.0 , 0.0
 0.0 ,0.0 ,           0.0 ,            0.0 ,            0.0 ,            0.0 ,              0.0 ,                   0.0 , 611.0 ,90.16086 ,-5.95738  ,           0.0 ,           0.0 ,       0.0 ,125.3473       ,-18.49211   ,-0.01728395      ,0.003552298      ,                 0.0 ,             0.0 ,             0.0 ,                 0.0 ,                 0.0 ,        0.0 ,0.7141049437575864     ,            0.0 ,            0.0 ,            0.0 ,              0.0 ,                   0.0 ,  0.0 ,0.0 , 439.0879081808477   ,1.0                ,0.0 ,-54.360898151002914 ,-112.3063660530461  ,-3.085949326235518      ,-55.775957022889024 ,          0.0 ,          0.0 ,-54.18352694880517  ,-112.48372402081073 ,-55.775957022889024 ,-222.44318122693804 , 33.21157806106299   , 74.14773106851489  , 57.52413910094684   ,-49.36512765084413    ,-107.31058452419306 ,-3.085949326235518      ,-50.78018652273024  ,          0.0 ,          0.0 ,-49.187754242907545  ,-107.48796454934622 ,-50.78018652273024  ,-207.4559088334638  , 33.21157806106299   , 69.15197159705038   , 57.52413910094684   ,-1.1055726089940624e-06 ,3.7564808562941403e-07  ,7.518294044726012e-07   ,      0.0 ,      0.0 ,      0.0 ,4.872131877671027e-07   ,-1.2171374423088331e-06 ,      0.0 ,-7.299243805436594e-07  ,8.782548894018543e-07  ,0.3808752304383275   ,0.028758282942118463    ,-2.417251802524271e-06  ,-1.2858773826171103e-06 ,9.059754709354741e-07  ,20.605703459350536     ,0.0 ,105.55306304678061    ,3.8944766184447874      ,        0.0 ,        0.0 , 0.0
 0.0 ,0.0 ,           0.0 ,            0.0 ,            0.0 ,            0.0 ,              0.0 ,                   0.0 , 612.0 ,92.03148 ,-6.093538 ,           0.0 ,           0.0 ,       0.0 ,123.5065       ,-18.44419   ,-0.01034322      ,-0.002810813     ,                 0.0 ,             0.0 ,             0.0 ,                 0.0 ,                 0.0 ,        0.0 ,2.0868695143484004     ,            0.0 ,            0.0 ,            0.0 ,              0.0 ,                   0.0 ,  0.0 ,0.0 , 481.5469019521365   ,1.0                ,0.0 ,-56.45812546173121  ,-113.76739771136477 ,-2.456432635249242      ,-56.81787184647688  ,          0.0 ,          0.0 ,-56.35135422775369  ,-113.8741901302808  ,-56.81787184647688  ,-227.04338540832518 , 33.08042468595514   , 75.681133151413    , 57.296978016955336  ,-51.46237780282245    ,-108.7716539346704  ,-2.456432635249242      ,-51.82211941842047  ,          0.0 ,          0.0 ,-51.35560179969727   ,-108.87839866210999 ,-51.82211941842047  ,-212.0561494732373  , 33.08042468595514   , 70.685384605571     , 57.296978016955336  ,8.086227993898212e-07   ,-5.090338081206733e-07  ,2.6980356811865446e-06  ,      0.0 ,      0.0 ,      0.0 ,2.4084628634359674e-06  ,-2.1088736194935343e-06 ,      0.0 ,2.99589122494192e-07    ,2.3088930300066966e-06 ,0.47999024313066313  ,0.04098538543146729     ,-3.1681309091875322e-06 ,-2.739169120674318e-06  ,0.0                    ,4.196282493238384e-06  ,0.0 ,123.26715193159343    ,4.995749429880219       ,        0.0 ,        0.0 , 0.0
 0.0 ,0.0 ,           0.0 ,            0.0 ,            0.0 ,            0.0 ,              0.0 ,                   0.0 , 613.0 ,93.88862 ,-5.845695 ,           0.0 ,           0.0 ,       0.0 ,125.1501       ,-18.36071   ,-0.00876304      ,-0.001137932     ,                 0.0 ,             0.0 ,             0.0 ,                 0.0 ,                 0.0 ,        0.0 ,1.6449415727544068     ,            0.0 ,            0.0 ,            0.0 ,              0.0 ,                   0.0 ,  0.0 ,0.0 , 497.12029398177754  ,1.0                ,0.0 ,-54.88126193296277  ,-109.0276989312548  ,-2.297086886853615      ,-54.61550536786343  ,          0.0 ,          0.0 ,-54.783403982258534 ,-109.12558391374696 ,-54.61550536786343  ,-218.52446395489784 , 31.423146632374937  , 72.84149042880311  , 54.42648798769892   ,-49.885419674640964   ,-104.03186621224705 ,-2.297086886853615      ,-49.61966252716941  ,          0.0 ,          0.0 ,-49.7875613719075    ,-104.12969943459308 ,-49.61966252716941  ,-203.53691863137087 , 31.423146632374937  , 67.84564840082429   , 54.42648798769892   ,1.7546156599665769e-06  ,-8.262002123532381e-07  ,2.2031527058319047e-06  ,      0.0 ,      0.0 ,      0.0 ,2.2223484400940417e-06  ,-1.293932997087563e-06  ,      0.0 ,9.284154268824711e-07   ,1.788309806297546e-06  ,0.2714428950224406   ,0.02287022350279166     ,-3.2092248759216483e-06 ,-1.7437185772347917e-06 ,2.101491956339835e-06  ,65.66032563334937      ,0.0 ,58.51065262621765     ,2.5854793408785754      ,        0.0 ,        0.0 , 0.0
 0.0 ,0.0 ,           0.0 ,            0.0 ,            0.0 ,            0.0 ,              0.0 ,                   0.0 , 614.0 ,95.80261 ,-5.407199 ,           0.0 ,           0.0 ,       0.0 ,128.1078       ,-18.21798   ,-0.007869592     ,0.0006986075     ,                 0.0 ,             0.0 ,             0.0 ,                 0.0 ,                 0.0 ,        0.0 ,1.9133344958417324     ,            0.0 ,            0.0 ,            0.0 ,              0.0 ,                   0.0 ,  0.0 ,0.0 , 504.1435079813423   ,1.0                ,0.0 ,-51.749066085142914 ,-101.61265176252974 ,-1.5503177880701065     ,-51.035767615293906 ,          0.0 ,          0.0 ,-51.69567938037248  ,-101.66606126458115 ,-51.035767615293906 ,-204.3974913416027  , 29.043444329448416  , 68.13249980846977  , 50.304720112053104  ,-46.75288485690851    ,-96.61647141538296  ,-1.5503177880701065     ,-46.03959182760331  ,          0.0 ,          0.0 ,-46.699507853631346  ,-96.66988091743436  ,-46.03959182760331  ,-189.4089563377196  , 29.043444329448416  , 63.13632343819829   , 50.304720112053104  ,-1.1268276580452895e-06 ,-2.010519496165278e-07  ,-3.0890034818611e-07    ,      0.0 ,      0.0 ,      0.0 ,1.1176007482414815e-07  ,-1.4396397736750894e-06 ,      0.0 ,-1.327880018012875e-06  ,9.007082221100987e-07  ,0.03901906912642464  ,-4.684260472450272e-06  ,-4.428765450014346e-06  ,0.0                     ,6.476897426099695e-06  ,128.6798440383684      ,0.0 ,0.0                   ,0.0                     ,        0.0 ,        0.0 , 0.0
 0.0 ,0.0 ,           0.0 ,            0.0 ,            0.0 ,            0.0 ,              0.0 ,                   0.0 , 615.0 ,97.81163 ,-5.231034 ,           0.0 ,           0.0 ,       0.0 ,127.838        ,-18.01484   ,-0.004121138     ,-2.080082e-05    ,                 0.0 ,             0.0 ,             0.0 ,                 0.0 ,                 0.0 ,        0.0 ,3.4668193573273745     ,            0.0 ,            0.0 ,            0.0 ,              0.0 ,                   0.0 ,  0.0 ,0.0 , 502.5145083165068   ,1.0                ,0.0 ,-50.41195909119005  ,-98.33451726640347  ,-1.0807777861531374     ,-49.49073644072111  ,          0.0 ,          0.0 ,-50.38742818580118  ,-98.35907280255238  ,-49.49073644072111  ,-198.23721223180695 , 27.958936513030082  , 66.0790725829143   , 48.426294374814816  ,-45.415845968929965   ,-93.33840429183935  ,-1.0807777861531374     ,-44.49462839230901  ,          0.0 ,          0.0 ,-45.391320075679246  ,-93.36295982798826  ,-44.49462839230901  ,-183.24888835768635 , 27.958936513030082  , 61.08296937466808   , 48.426294374814816  ,1.6965910802498807e-06  ,-1.5994703462129211e-06 ,9.955924551675254e-07   ,      0.0 ,      0.0 ,      0.0 ,3.1352716433439636e-06  ,-3.0381510078300447e-06 ,      0.0 ,9.712029068327861e-08   ,3.264839515367214e-06  ,0.03937420840937996  ,-6.553278616911697e-06  ,-5.326294431541785e-06  ,0.0                     ,8.544174238757376e-06  ,127.4505225086655      ,0.0 ,0.0                   ,0.0                     ,        0.0 ,        0.0 , 0.0
 0.0 ,0.0 ,           0.0 ,            0.0 ,            0.0 ,            0.0 ,              0.0 ,                   0.0 , 616.0 ,99.80012 ,-5.096551 ,           0.0 ,           0.0 ,       0.0 ,126.2069       ,-17.71724   ,-0.001641437     ,-0.0006078961    ,                 0.0 ,             0.0 ,             0.0 ,                 0.0 ,                 0.0 ,        0.0 ,2.7420132587642545     ,            0.0 ,            0.0 ,            0.0 ,              0.0 ,                   0.0 ,  0.0 ,0.0 , 425.48199592089304  ,1.0                ,0.0 ,-49.98828806873212  ,-95.93540389896377  ,-0.5891229485230813     ,-48.43815209470419  ,          0.0 ,          0.0 ,-49.979377839228256 ,-95.94432151022085  ,-48.43815209470419  ,-194.36183247748664 , 26.996749243548642  , 64.78728798242066  , 46.75973940893298   ,-44.99268504419037    ,-90.9398086524036   ,-0.5891229485230813     ,-43.44254688652339  ,          0.0 ,          0.0 ,-44.98377001280068   ,-90.9487262636607   ,-43.44254688652339  ,-179.37504018688898 , 26.996749243548642  , 59.79168019437245   , 46.75973940893298   ,5.3319592328326125e-06  ,-2.493113978041136e-06  ,2.4873450237850863e-06  ,      0.0 ,      0.0 ,      0.0 ,5.5869699981436016e-06  ,-2.7481247433521256e-06 ,      0.0 ,2.8388451515967803e-06  ,4.247738277456271e-06  ,0.33637940230868935  ,0.03170104807879347     ,-1.2685803368013157e-05 ,-1.1021462239087954e-05 ,2.13323514226995e-06   ,35.54868569260241      ,0.0 ,88.3043246340946      ,3.687366200073212       ,        0.0 ,        0.0 , 0.0
 0.0 ,0.0 ,           0.0 ,            0.0 ,            0.0 ,            0.0 ,              0.0 ,                   0.0 , 617.0 ,101.7665 ,-4.96982  ,           0.0 ,           0.0 ,       0.0 ,123.1621       ,-17.28603   ,-0.001831085     ,-6.691447e-05    ,                 0.0 ,             0.0 ,             0.0 ,                 0.0 ,                 0.0 ,        0.0 ,2.495978835547907      ,            0.0 ,            0.0 ,            0.0 ,              0.0 ,                   0.0 ,  0.0 ,0.0 , 502.7785699668792   ,1.0                ,0.0 ,-48.02690448824109  ,-93.93538008645906  ,-0.17953817831666755    ,-47.217683810193364 ,          0.0 ,          0.0 ,-48.02542092481359  ,-93.93690862651991  ,-47.217683810193364 ,-189.18001831710393 , 26.743313162472198  , 63.06000119391349  , 46.32077871491367   ,-43.0317888553503     ,-88.94029935398957  ,-0.17953817831666755    ,-42.2225631921102   ,          0.0 ,          0.0 ,-43.030300332134445  ,-88.94177800001425  ,-42.2225631921102   ,-174.19466145225812 , 26.743313162472198  , 58.06488047421428   , 46.32077871491367   ,5.09160076051213e-06    ,-2.1572268241677923e-06 ,4.138043278834368e-06   ,      0.0 ,      0.0 ,      0.0 ,5.900532482068555e-06   ,-2.966158545724217e-06  ,      0.0 ,2.9343739360902985e-06  ,4.513556220966333e-06  ,0.22845349837981724  ,0.018537999233782125    ,-2.3882364086897952e-05 ,-2.6490289124073956e-06 ,3.278333495128017e-05  ,50.4086230313738       ,0.0 ,66.20752038692028     ,2.478156267899773       ,        0.0 ,        0.0 , 0.0
 0.0 ,0.0 ,           0.0 ,            0.0 ,            0.0 ,            0.0 ,              0.0 ,                   0.0 , 618.0 ,103.7184 ,-4.84606  ,           0.0 ,           0.0 ,       0.0 ,118.2872       ,-16.67478   ,-0.001052482     ,-2.499361e-05    ,                 0.0 ,             0.0 ,             0.0 ,                 0.0 ,                 0.0 ,        0.0 ,1.7700780014103403     ,            0.0 ,            0.0 ,            0.0 ,              0.0 ,                   0.0 ,  0.0 ,0.0 , 492.0536844830094   ,1.0                ,0.0 ,-47.0132007498373   ,-91.80426988983255  ,0.02810959611623448     ,-46.14479319100529  ,          0.0 ,          0.0 ,-47.01299654330967  ,-91.80449526567385  ,-46.14479319100529  ,-184.96228236853995 , 26.115767257566837  , 61.65409313495408  , 45.23383561075142   ,-42.018406259550645   ,-86.80950832134458  ,0.02810959611623448     ,-41.14999616605306  ,          0.0 ,          0.0 ,-42.01819951835743   ,-86.80970484803174  ,-41.14999616605306  ,-169.97791326067434 , 26.115767257566837  , 56.65929611000183   , 45.23383561075142   ,3.9437791812445545e-06  ,-1.4988285017224478e-06 ,3.052806144048446e-06   ,      0.0 ,      0.0 ,      0.0 ,4.685417139552706e-06   ,-2.2404664600305985e-06 ,      0.0 ,2.4449506795221075e-06  ,3.5343836912239168e-06 ,0.04515736076153989  ,-3.857094181607988e-05  ,-2.810289161647967e-05  ,0.0                     ,4.793844117486707e-05  ,113.27820386545083     ,0.0 ,0.0                   ,0.0                     ,        0.0 ,        0.0 , 0.0
 0.0 ,0.0 ,           0.0 ,            0.0 ,            0.0 ,            0.0 ,              0.0 ,                   0.0 , 619.0 ,105.6629 ,-4.722994 ,           0.0 ,           0.0 ,       0.0 ,111.1345       ,-15.83644   ,-0.00076529      ,0.0001050936     ,                 0.0 ,             0.0 ,             0.0 ,                 0.0 ,                 0.0 ,        0.0 ,0.2535477953723133     ,            0.0 ,            0.0 ,            0.0 ,              0.0 ,                   0.0 ,  0.0 ,0.0 , 492.5563836040933   ,1.0                ,0.0 ,-46.0176649115364   ,-89.75575951039568  ,0.12549722870261393     ,-45.09885837562506  ,          0.0 ,          0.0 ,-46.01693117018515  ,-89.75643086089892  ,-45.09885837562506  ,-180.87223763833563 , 25.524027396416777  , 60.29075010342973  , 44.208915103536725  ,-41.0231154020666     ,-84.76119765285162  ,0.12549722870261393     ,-40.10430886615527  ,          0.0 ,          0.0 ,-41.02238419619331   ,-84.76194618405326  ,-40.10430886615527  ,-165.8886317818798  , 25.524027396416777  , 55.296203129437885  , 44.208915103536725  ,7.733664144887226e-07   ,-2.862600248356584e-07  ,4.5704094562561066e-07  ,      0.0 ,      0.0 ,      0.0 ,8.205483630861703e-07   ,-3.334422269809015e-07  ,      0.0 ,4.871063896530643e-07   ,5.938824656226158e-07  ,0.04663431178599243  ,-4.860613789788871e-05  ,-3.2687816415377225e-05 ,0.0                     ,5.987938806181212e-05  ,107.33311316297686     ,0.0 ,0.0                   ,0.0                     ,        0.0 ,        0.0 , 0.0
 0.0 ,0.0 ,           0.0 ,            0.0 ,            0.0 ,            0.0 ,              0.0 ,                   0.0 , 620.0 ,107.6049 ,-4.600053 ,           0.0 ,           0.0 ,       0.0 ,101.4012       ,-14.74017   ,-0.0004183726    ,0.0001614253     ,                 0.0 ,             0.0 ,             0.0 ,                 0.0 ,                 0.0 ,        0.0 ,2.252878650007506      ,            0.0 ,            0.0 ,            0.0 ,              0.0 ,                   0.0 ,  0.0 ,0.0 , 492.94409128445227  ,1.0                ,0.0 ,-45.01563555541219  ,-87.63034458558776  ,0.21644865399628915     ,-44.0728273817321   ,          0.0 ,          0.0 ,-45.014344676716156 ,-87.63160785168544  ,-44.0728273817321   ,-176.71881758686476 , 24.88306572448979   , 58.90626501182845  , 43.09873645297745   ,-40.02236592228613    ,-82.63707241055579  ,0.21644865399628915     ,-39.079557748606035 ,          0.0 ,          0.0 ,-40.021077508243884  ,-82.63837336650394  ,-39.079557748606035 ,-161.73900610404084 , 24.88306572448979   , 53.91299784335618   , 43.09873645297745   ,-1.3979676015366556e-06 ,7.007086810365181e-09   ,4.99827270868742e-07    ,      0.0 ,      0.0 ,      0.0 ,1.083215521116885e-06   ,-2.4741764829498814e-06 ,      0.0 ,-1.3909606150469536e-06 ,1.9087457278733634e-06 ,0.25359445832706745  ,0.028222744357437428    ,-8.558675285032329e-05  ,-7.111345604788816e-05  ,3.536750861823613e-05  ,53.352720990420394     ,0.0 ,44.45669575527045     ,2.5040348617136963      ,        0.0 ,        0.0 , 0.0
 0.0 ,0.0 ,           0.0 ,            0.0 ,            0.0 ,            0.0 ,              0.0 ,                   0.0 , 621.0 ,109.5494 ,-4.476538 ,           0.0 ,           0.0 ,       0.0 ,89.17122       ,-13.39366   ,-7.06081e-05     ,0.000159419      ,                 0.0 ,             0.0 ,             0.0 ,                 0.0 ,                 0.0 ,        0.0 ,1.5018003732888416     ,            0.0 ,            0.0 ,            0.0 ,              0.0 ,                   0.0 ,  0.0 ,0.0 , 493.4452138791197   ,1.0                ,0.0 ,-43.802477716410486 ,-85.46286393499973  ,0.2738423930864747      ,-42.94548802468854  ,          0.0 ,          0.0 ,-43.80054440485032  ,-85.46479976491305  ,-42.94548802468854  ,-172.21085474881255 , 24.307703079830972  , 57.403608172811914 , 42.10217371818384   ,-38.81440291674888    ,-80.4747841231027   ,0.2738423930864747      ,-37.95741076138383  ,          0.0 ,          0.0 ,-38.812462099071     ,-80.47672494078057  ,-37.95741076138383  ,-157.2465978012354  , 24.307703079830972  , 52.4155309095072    , 42.10217371818384   ,1.835751667619247e-07   ,1.3984257969569007e-07  ,2.8459522920309575e-06  ,      0.0 ,      0.0 ,      0.0 ,2.3096234157080304e-06  ,-1.986205476542179e-06  ,      0.0 ,3.234174847960356e-07   ,2.2460839019517376e-06 ,0.41207062174675724  ,0.06671631885083588     ,-0.00026020472100638355 ,-0.00018113540557423665 ,0.0                    ,0.0003188581052494323  ,0.0 ,80.93296857551141     ,4.988078019964319       ,        0.0 ,        0.0 , 0.0
 0.0 ,0.0 ,           0.0 ,            0.0 ,            0.0 ,            0.0 ,              0.0 ,                   0.0 , 622.0 ,111.5035 ,-4.350625 ,           0.0 ,           0.0 ,       0.0 ,75.07914       ,-11.85854   ,0.0002674992     ,0.000279125      ,                 0.0 ,             0.0 ,             0.0 ,                 0.0 ,                 0.0 ,        0.0 ,0.7371536019747319     ,            0.0 ,            0.0 ,            0.0 ,              0.0 ,                   0.0 ,  0.0 ,0.0 , 493.95491885993414  ,1.0                ,0.0 ,-42.50745049920608  ,-83.20320341246023  ,0.2462278221588911      ,-41.77019748880581  ,          0.0 ,          0.0 ,-42.505559827344136 ,-83.20509143736834  ,-41.77019748880581  ,-167.48084855141656 , 23.71380971765956   , 55.82694796076799  , 41.07352357094993   ,-37.52100964721306    ,-78.21676011561512  ,0.2462278221588911      ,-36.78375926527677  ,          0.0 ,          0.0 ,-37.51912162230496   ,-78.21865323232917  ,-36.78375926527677  ,-152.52152902810494 , 23.71380971765956   , 50.840509737238946  , 41.07352357094993   ,3.5137320509732103e-06  ,-1.3321211314027722e-06 ,1.8712714490193186e-06  ,      0.0 ,      0.0 ,      0.0 ,3.972472581897393e-06   ,-1.7908620131939257e-06 ,      0.0 ,2.181610077884062e-06   ,2.949794512744007e-06  ,0.21807718006043153  ,0.03238723799825062     ,-0.00025891087234686683 ,-7.299327087317138e-05  ,0.0002362780242814386  ,32.47391331551738      ,0.0 ,39.522201384475345    ,2.4483244830954085      ,        0.0 ,        0.0 , 0.0
 0.0 ,0.0 ,           0.0 ,            0.0 ,            0.0 ,            0.0 ,              0.0 ,                   0.0 , 623.0 ,113.482  ,-4.215903 ,           0.0 ,           0.0 ,       0.0 ,60.22911       ,-10.23881   ,0.0004369345     ,9.225245e-05     ,                 0.0 ,             0.0 ,             0.0 ,                 0.0 ,                 0.0 ,        0.0 ,2.0264192520451942     ,            0.0 ,            0.0 ,            0.0 ,              0.0 ,                   0.0 ,  0.0 ,0.0 , 494.49808483465523  ,1.0                ,0.0 ,-41.12221797649378  ,-80.7334075848705   ,0.19259249133679493     ,-40.53068635909048  ,          0.0 ,          0.0 ,-41.11984775663634  ,-80.7357730039444   ,-40.53068635909048  ,-162.38632558219345 , 23.046763415885255  , 54.12877077296256  , 39.918163982504446  ,-36.13812694958925    ,-75.74932175718243  ,0.19259249133679493     ,-35.546597666529586 ,          0.0 ,          0.0 ,-36.135766729731806  ,-75.75168431138351  ,-35.546597666529586 ,-147.43402804287533 , 23.046763415885255  , 49.144684546841575  , 39.918163982504446  ,6.581146288884377e-06   ,-4.84678674451354e-06   ,2.459806971258787e-06   ,      0.0 ,      0.0 ,      0.0 ,7.981091236514227e-06   ,-6.246735651734927e-06  ,      0.0 ,1.7343574671506925e-06  ,7.137327240499883e-06  ,0.1255404283721307   ,0.01909819469108609     ,-0.0003202343810165647  ,-2.639739366508454e-05  ,0.0002625437120815993  ,46.81229223257614      ,0.0 ,15.740422343871503    ,1.229452462966472       ,        0.0 ,        0.0 , 0.0
 0.0 ,0.0 ,           0.0 ,            0.0 ,            0.0 ,            0.0 ,              0.0 ,                   0.0 , 624.0 ,115.5192 ,-4.048095 ,           0.0 ,           0.0 ,       0.0 ,45.76452       ,-8.624547   ,0.00108922       ,0.001028171      ,                 0.0 ,             0.0 ,             0.0 ,                 0.0 ,                 0.0 ,        0.0 ,2.0                    ,            0.0 ,            0.0 ,            0.0 ,              0.0 ,                   0.0 ,  0.0 ,0.0 , 511.20007687345617  ,1.0                ,0.0 ,-39.683020478775354 ,-78.43917109824402  ,0.5022788010598395      ,-39.30693371277533  ,          0.0 ,          0.0 ,-39.670111534439044 ,-78.45208004258033  ,-39.30693371277533  ,-157.4291479020482  , 22.49643299952586   , 52.47637474997043  , 38.96496765153468   ,-34.70034017314901    ,-73.45650046144914  ,0.5022788010598395      ,-34.32425340714898  ,          0.0 ,          0.0 ,-34.68744089764415   ,-73.4694047601429   ,-34.32425340714898  ,-142.48109422725824 , 22.49643299952586   , 47.49369979870152   , 38.96496765153468   ,1.2282224430506076e-05  ,-8.55289947649404e-06   ,-3.1421845429901754e-06 ,      0.0 ,      0.0 ,      0.0 ,1.2466784648011138e-05  ,-8.737465750957254e-06  ,      0.0 ,3.7293214563309264e-06  ,1.06576484436807e-05   ,0.2314122276284861   ,0.04229146801718139     ,-0.00036612773548510576 ,-0.00021955710653333863 ,0.0001620058325971377  ,30.310722321298634     ,0.0 ,29.66507492049192     ,2.5026406115456994      ,        0.0 ,        0.0 , 0.0
 0.0 ,0.0 ,           0.0 ,            0.0 ,            0.0 ,            0.0 ,              0.0 ,                   0.0 , 625.0 ,117.6957 ,-3.754761 ,           0.0 ,           0.0 ,       0.0 ,32.51799       ,-7.00656    ,0.008600283      ,-0.001408838     ,                 0.0 ,             0.0 ,             0.0 ,                 0.0 ,                 0.0 ,        0.0 ,0.8274287031780103     ,            0.0 ,            0.0 ,            0.0 ,              0.0 ,                   0.0 ,  0.0 ,0.0 , 512.0704092775818   ,1.0                ,0.0 ,-36.929536447401006 ,-72.80406579547565  ,0.5874473330004845      ,-36.487397965442824 ,          0.0 ,          0.0 ,-36.915761061747055 ,-72.81784032050922  ,-36.487397965442824 ,-146.22097933428245 , 20.852866502471336  , 48.74033173685186  , 36.11822908854932   ,-31.993149421470097   ,-67.86768376730863  ,0.5874473330004845      ,-31.551011800132297 ,          0.0 ,          0.0 ,-31.979379033580045  ,-67.88145829234222  ,-31.551011800132297 ,-131.41184152854066 , 20.852866502471336  , 43.803949708684854  , 36.11822908854932   ,4.916366222820911e-06   ,-3.2349806248123003e-06 ,-2.157469870385768e-06  ,      0.0 ,      0.0 ,      0.0 ,5.056706405166934e-06   ,-3.3753224620157286e-06 ,      0.0 ,1.6813843568655562e-06  ,4.243861132882436e-06  ,0.4038345810408075   ,0.1487386333035292      ,-0.0027693099296116244  ,-0.003066860449955958   ,0.0                    ,0.004137467011557066   ,0.0 ,39.38709637730943     ,4.936382768192011       ,        0.0 ,        0.0 , 0.0
 0.0 ,0.0 ,           0.0 ,            0.0 ,            0.0 ,            0.0 ,              0.0 ,                   0.0 , 626.0 ,120.1794 ,-3.019641 ,           0.0 ,           0.0 ,       0.0 ,19.67868       ,-4.987509   ,0.003630928      ,0.001569811      ,                 0.0 ,             0.0 ,             0.0 ,                 0.0 ,                 0.0 ,        0.0 ,0.0                    ,            0.0 ,            0.0 ,            0.0 ,              0.0 ,                   0.0 ,  0.0 ,0.0 , 546.7500390120501   ,1.0                ,0.0 ,-30.182129747053573 ,-58.63412998051265  ,0.7238564279944206      ,-29.47684030834141  ,          0.0 ,          0.0 ,-30.162897621625135 ,-58.65335716664367  ,-29.47684030834141  ,-118.29310460195353 , 16.650894098164457  , 39.43103169887007  , 28.84019061554074   ,-25.453095262468334   ,-53.90509562185057  ,0.7238564279944206      ,-24.74780594967934  ,          0.0 ,          0.0 ,-25.43386326296306   ,-53.92432256065325  ,-24.74780594967934  ,-104.1060170768086  , 16.650894098164457  , 34.701997340207996  , 28.84019061554074   ,0.0                     ,0.0                     ,0.0                     ,      0.0 ,      0.0 ,      0.0 ,0.0                     ,0.0                     ,      0.0 ,0.0                     ,0.0                    ,0.39296220528418213  ,0.05672351491329107     ,-0.034017550736801946   ,-0.0009088638167493884  ,0.037820012410793476   ,5.393048979123557      ,0.0 ,15.972349274636104    ,2.440646138512919       ,        0.0 ,        0.0 , 0.0
 0.0 ,0.0 ,           0.0 ,            0.0 ,            0.0 ,            0.0 ,              0.0 ,                   0.0 , 627.0 ,121.5249 ,-3.971531 ,           0.0 ,           0.0 ,       0.0 ,10.41494       ,-5.013025   ,-0.01015448      ,-0.002559502     ,                 0.0 ,             0.0 ,             0.0 ,                 0.0 ,                 0.0 ,        0.0 ,0.24261502231603177    ,            0.0 ,            0.0 ,            0.0 ,              0.0 ,                   0.0 ,  0.0 ,0.0 , 508.59425774275144  ,1.0                ,0.0 ,-38.30878997737545  ,-75.26253149431497  ,0.6441029653434578      ,-37.762096648562036 ,          0.0 ,          0.0 ,-38.29641100795901  ,-75.2749104637314   ,-37.762096648562036 ,-151.3334215223114  , 21.506673270133913  , 50.44447189803408  , 37.25064790126334   ,-33.75320753365063    ,-70.7069447757109   ,0.6441029653434578      ,-33.20650992995796  ,          0.0 ,          0.0 ,-33.74082428935494   ,-70.71932044615681  ,-33.20650992995796  ,-137.66668525626793 , 21.506673270133913  , 45.88888760558023   , 37.25064790126334   ,1.7297281686725501e-06  ,-4.002211374228384e-06  ,-7.673347862854089e-07  ,      0.0 ,      0.0 ,      0.0 ,1.7552949397242137e-06  ,-4.027778145280048e-06  ,      0.0 ,-2.2724841760159234e-06 ,2.9650175969260093e-06 ,0.4075961533639699   ,-0.03150894340773218    ,-0.061224694803373274   ,0.0                     ,0.06904322883174432    ,11.45371209673928      ,0.0 ,0.0                   ,0.0                     ,        0.0 ,        0.0 , 0.0
 0.0 ,0.0 ,           0.0 ,            0.0 ,            0.0 ,            0.0 ,              0.0 ,                   0.0 , 628.0 ,123.1539 ,-3.727088 ,           0.0 ,           0.0 ,       0.0 ,4.368699       ,-4.163958   ,0.01206805       ,0.002296507      ,                 0.0 ,             0.0 ,             0.0 ,                 0.0 ,                 0.0 ,        0.0 ,0.5857363505087666     ,            0.0 ,            0.0 ,            0.0 ,              0.0 ,                   0.0 ,  0.0 ,0.0 , 480.01914165964615  ,1.0                ,0.0 ,-34.795568063594125 ,-70.40417335607964  ,0.573325999320099       ,-35.210731498122925 ,          0.0 ,          0.0 ,-34.784525155572545 ,-70.41521135900727  ,-35.210731498122925 ,-140.41047196392265 , 20.455314814083295  , 46.803489528449354 , 35.429654108753     ,-31.49725444345273    ,-67.10585973593825  ,0.573325999320099       ,-31.912417877981532 ,          0.0 ,          0.0 ,-31.486211535431156  ,-67.11689773886587  ,-31.912417877981532 ,-130.51551715388305 , 20.455314814083295  , 43.5051806219853    , 35.429654108753     ,3.3199179045546256e-06  ,-4.620158272110207e-06  ,-2.1585922610174452e-06 ,      0.0 ,      0.0 ,      0.0 ,6.600391968380213e-06   ,-7.90063241218154e-06   ,      0.0 ,-1.300242253026519e-06  ,7.6245159591220765e-06 ,0.42578189285651913  ,0.4423527149362215      ,-0.1361586586119549     ,-0.3278990044882355     ,0.04944407133275471    ,4.759230131886709      ,0.0 ,1.4188118622413364    ,1.2189601863772883      ,        0.0 ,        0.0 , 0.0
 0.0 ,0.0 ,           0.0 ,            0.0 ,            0.0 ,            0.0 ,              0.0 ,                   0.0 , 629.0 ,122.742  ,-2.288272 ,           0.0 ,           0.0 ,       0.0 ,7.411133       ,-3.029386   ,0.01898875       ,-0.001937536     ,                 0.0 ,             0.0 ,             0.0 ,                 0.0 ,                 0.0 ,        0.0 ,1.918556278509742      ,            0.0 ,            0.0 ,            0.0 ,              0.0 ,                   0.0 ,  0.0 ,0.0 , 519.7579520248769   ,1.0                ,0.0 ,-21.74804322832733  ,-44.95427877142209  ,0.45706960187527423     ,-22.440387388035944 ,          0.0 ,          0.0 ,-21.734365443407853 ,-44.96794738911454  ,-22.440387388035944 ,-89.142705849722    , 13.217527621829259  , 29.71423806139202  , 22.893432455761005  ,-17.92894249942581    ,-41.13517720974759  ,0.45706960187527423     ,-18.621285826361447 ,          0.0 ,          0.0 ,-17.915268678124054  ,-41.14885062383075  ,-18.621285826361447 ,-77.68540886662674  , 13.217527621829259  , 25.895136499717523  , 22.893432455761005  ,1.560361821311973e-05   ,-1.295460520630228e-05  ,-1.0603515211193212e-05 ,      0.0 ,      0.0 ,      0.0 ,1.6556104663148677e-05  ,-1.3907096452721922e-05 ,      0.0 ,2.6490106086221045e-06  ,1.5250786120720397e-05 ,0.3134394278508275   ,0.369634679575039       ,-0.09072917518501246    ,-0.262219365410495      ,0.011086780728213536   ,11.323924505173078     ,0.0 ,1.287192941704918     ,1.1091088975218         ,        0.0 ,        0.0 , 0.0
 0.0 ,0.0 ,           0.0 ,            0.0 ,            0.0 ,            0.0 ,              0.0 ,                   0.0 , 630.0 ,1.871226 ,-2.638435 ,           0.0 ,           0.0 ,       0.0 ,152.8337       ,-17.9218    ,-0.00243823      ,-0.0001597535    ,                 0.0 ,             0.0 ,             0.0 ,                 0.0 ,                 0.0 ,        0.0 ,1.4410757832183891     ,            0.0 ,            0.0 ,            0.0 ,              0.0 ,                   0.0 ,  0.0 ,0.0 , 765.1749890221477   ,1.0                ,0.0 ,-18.941914306353798 ,-52.71930823004899  ,-0.19803032053548922    ,-24.90407354345691  ,          0.0 ,          0.0 ,-18.94059919158988  ,-52.72062169095885  ,-24.90407354345691  ,-96.56529858046011  , 18.127483298090734  , 32.1884333258435   , 31.397715649385155  ,-13.944487768406159   ,-47.721886435557835 ,-0.19803032053548922    ,-19.906652134865034 ,          0.0 ,          0.0 ,-13.943172653642238  ,-47.72320155032175  ,-19.906652134865034 ,-81.57301505008775  , 18.127483298090734  , 27.191011917251622  , 31.397715649385155  ,1.9198014122984028e-06  ,-2.1505759271310976e-06 ,-6.878092744553389e-09  ,      0.0 ,      0.0 ,      0.0 ,1.919806306149436e-06   ,-2.150580820982131e-06  ,      0.0 ,-2.3077451483269475e-07 ,2.056507826861596e-06  ,0.26435637496700387  ,0.01730768619405781     ,2.1131129840355186e-07  ,-1.0368273667790452e-08 ,6.950973006549499e-09  ,85.40429039689015      ,0.0 ,72.73176109175658     ,2.5080567331536545      ,        0.0 ,        0.0 , 0.0
 0.0 ,0.0 ,           0.0 ,            0.0 ,            0.0 ,            0.0 ,              0.0 ,                   0.0 , 631.0 ,1.854014 ,-4.290311 ,           0.0 ,           0.0 ,       0.0 ,136.305        ,-17.92081   ,-0.003121158     ,0.0001604697     ,                 0.0 ,             0.0 ,             0.0 ,                 0.0 ,                 0.0 ,        0.0 ,3.0174657581366744     ,            0.0 ,            0.0 ,            0.0 ,              0.0 ,                   0.0 ,  0.0 ,0.0 , 547.386011061566    ,1.0                ,0.0 ,-34.402496417666164 ,-82.80583508916519  ,-0.3105743608461056     ,-40.0896279828918   ,          0.0 ,          0.0 ,-34.40005023056642  ,-82.80828127626492  ,-40.0896279828918   ,-157.29800440239435 , 26.464298193923366  , 52.432656512952036 , 45.837503573056935  ,-29.405419113248072   ,-77.80875778474707  ,-0.3105743608461056     ,-35.092550678473714 ,          0.0 ,          0.0 ,-29.402972926148333  ,-77.81120397184681  ,-35.092550678473714 ,-142.30676165960074 , 26.464298193923366  , 47.43557920853394   , 45.837503573056935  ,3.989265072663412e-06   ,-2.908678550603724e-06  ,8.435107996725355e-09   ,      0.0 ,      0.0 ,      0.0 ,3.989323275800825e-06   ,-2.9087362750264767e-06 ,      0.0 ,1.0805866568873627e-06  ,3.465580655311678e-06  ,0.034122982110021    ,-2.917671516495593e-08  ,-3.595299081027623e-08  ,0.0                     ,4.708429061932564e-08  ,146.8843333068897      ,0.0 ,0.0                   ,0.0                     ,        0.0 ,        0.0 , 0.0
 0.0 ,0.0 ,           0.0 ,            0.0 ,            0.0 ,            0.0 ,              0.0 ,                   0.0 , 632.0 ,1.904636 ,-5.951962 ,           0.0 ,           0.0 ,       0.0 ,119.6758       ,-17.91954   ,-0.003858932     ,-0.0001220179    ,                 0.0 ,             0.0 ,             0.0 ,                 0.0 ,                 0.0 ,        0.0 ,1.0152763728254781     ,            0.0 ,            0.0 ,            0.0 ,              0.0 ,                   0.0 ,  0.0 ,0.0 , 550.0766846156031   ,1.0                ,0.0 ,-49.743749429511    ,-113.13270354970524 ,-0.4157299984195147     ,-55.31270835034509  ,          0.0 ,          0.0 ,-49.740663077994284 ,-113.13579955657283 ,-55.31270835034509  ,-218.18918134011992 , 35.10541433460294   , 72.72971686228662  , 60.804362869662796  ,-44.747899885995096   ,-108.13681957284328 ,-0.4157299984195147     ,-50.31685887079098  ,          0.0 ,          0.0 ,-44.74480870680293   ,-108.13991557971087 ,-50.31685887079098  ,-203.20161779309484 , 35.10541433460294   , 67.73386274694248   , 60.804362869662796  ,1.4593937245587472e-06  ,-1.2513045928622856e-06 ,2.117144437074077e-08   ,      0.0 ,      0.0 ,      0.0 ,1.4594519241707738e-06  ,-1.2513622944303955e-06 ,      0.0 ,2.0808927663231068e-07  ,1.3570040593145363e-06 ,0.2943240968683568   ,0.02230919526484904     ,6.187234922532448e-08   ,9.035279547211899e-08   ,3.6506677847637646e-08 ,70.06723397190005      ,0.0 ,54.98614560008028     ,2.4752873218429046      ,        0.0 ,        0.0 , 0.0
 0.0 ,0.0 ,           0.0 ,            0.0 ,            0.0 ,            0.0 ,              0.0 ,                   0.0 , 633.0 ,1.930337 ,-7.635028 ,           0.0 ,           0.0 ,       0.0 ,102.8269       ,-17.91772   ,-0.005484895     ,-7.317428e-05    ,                 0.0 ,             0.0 ,             0.0 ,                 0.0 ,                 0.0 ,        0.0 ,0.5038389215980714     ,            0.0 ,            0.0 ,            0.0 ,              0.0 ,                   0.0 ,  0.0 ,0.0 , 487.2901603568365   ,1.0                ,0.0 ,-65.29043500873631  ,-143.7224777476073  ,-0.6930867549387876     ,-70.69764484624882  ,          0.0 ,          0.0 ,-65.28303667235124  ,-143.72987606823185 ,-70.69764484624882  ,-279.71052777056036 , 43.81329753820107   , 93.23682424886074  , 75.88686223424902   ,-60.295780383545285   ,-138.72777325300706 ,-0.6930867549387876     ,-65.7029952135149   ,          0.0 ,          0.0 ,-60.28838205504047   ,-138.73517157363162 ,-65.7029952135149   ,-264.7265638569354  , 43.81329753820107   , 88.24218960137839   , 75.88686223424902   ,2.8892097503080996e-06  ,-1.5086957915554054e-06 ,-1.1561792291771379e-07 ,      0.0 ,      0.0 ,      0.0 ,2.889972818227128e-06   ,-1.5094593564235377e-06 ,      0.0 ,1.3805134601959658e-06  ,2.2355820855202963e-06 ,0.5621074188467631   ,0.04612189236363472     ,4.596748007735858e-08   ,5.247259684963673e-08   ,1.6620694654540704e-10 ,0.31900103102811733    ,0.0 ,107.87343958822436    ,4.983180029371264       ,        0.0 ,        0.0 , 0.0
 0.0 ,0.0 ,           0.0 ,            0.0 ,            0.0 ,            0.0 ,              0.0 ,                   0.0 , 634.0 ,3.865272 ,-7.57787  ,           0.0 ,           0.0 ,       0.0 ,103.965        ,-17.97437   ,-0.007636529     ,-0.0005413231    ,                 0.0 ,             0.0 ,             0.0 ,                 0.0 ,                 0.0 ,        0.0 ,2.0067498296559747     ,            0.0 ,            0.0 ,            0.0 ,              0.0 ,                   0.0 ,  0.0 ,0.0 , 550.0241326645188   ,1.0                ,0.0 ,-64.98417026811347  ,-142.41453779130762 ,-1.1785720964401296     ,-70.11643328392358  ,          0.0 ,          0.0 ,-64.96552828685459  ,-142.43318997506142 ,-70.11643328392358  ,-277.51514565654    , 43.316343922401146  , 92.50502986664614  , 75.02610848956769   ,-59.9890626932418     ,-137.41945422733264 ,-1.1785720964401296     ,-65.12133067530274  ,          0.0 ,          0.0 ,-59.97042567823377   ,-137.4380575850882  ,-65.12133067530274  ,-262.5297981491289  , 43.316343922401146  , 87.50994772762601   , 75.02610848956769   ,2.5232224164056164e-06  ,-2.190486217220327e-06  ,3.9666263339662866e-08  ,      0.0 ,      0.0 ,      0.0 ,2.5406577232452e-06     ,-2.2079222069200293e-06 ,      0.0 ,3.327356109541807e-07   ,2.5746491900699745e-06 ,0.3033489725226646   ,0.02357368573209667     ,-1.0178833579373621e-07 ,-3.991005327213928e-08  ,1.1905244337724279e-07 ,61.70356756156522      ,0.0 ,52.25260698640739     ,2.4803264468800346      ,        0.0 ,        0.0 , 0.0
 0.0 ,0.0 ,           0.0 ,            0.0 ,            0.0 ,            0.0 ,              0.0 ,                   0.0 , 635.0 ,5.816999 ,-7.466551 ,           0.0 ,           0.0 ,       0.0 ,106.4062       ,-18.10717   ,-0.009623392     ,-0.001188475     ,                 0.0 ,             0.0 ,             0.0 ,                 0.0 ,                 0.0 ,        0.0 ,2.984250652450017      ,            0.0 ,            0.0 ,            0.0 ,              0.0 ,                   0.0 ,  0.0 ,0.0 , 553.7031244597214   ,0.9999999999999999 ,0.0 ,-64.3047949527694   ,-140.13427349143842 ,-1.5687831426563075     ,-69.05834181546611  ,          0.0 ,          0.0 ,-64.2720876987006   ,-140.16702027302682 ,-69.05834181546611  ,-273.4974642522096  , 42.505379103127964  , 91.16583612160433  , 73.62147138589432   ,-59.30960388178906    ,-135.1391554680329  ,-1.5687831426563075     ,-64.06315074448574  ,          0.0 ,          0.0 ,-59.27689172271026   ,-135.17180382455604 ,-64.06315074448574  ,-258.5118671067668  , 42.505379103127964  , 86.17062543058401   , 73.62147138589432   ,-4.3574885660950945e-07 ,-1.566005480831666e-06  ,2.1398101829419943e-08  ,      0.0 ,      0.0 ,      0.0 ,-4.1320302433056073e-07 ,-1.5885519030112751e-06 ,      0.0 ,-2.00175483016684e-06   ,8.499860195572415e-07  ,0.05166163658514665  ,0.0006257611729024393   ,-1.277010951552335e-07  ,-8.347080179557226e-10  ,3.396928661071885e-07  ,112.91929881866339     ,0.0 ,1.9793622507342472    ,0.07868449632839483     ,        0.0 ,        0.0 , 0.0
 0.0 ,0.0 ,           0.0 ,            0.0 ,            0.0 ,            0.0 ,              0.0 ,                   0.0 , 636.0 ,7.791618 ,-7.292507 ,           0.0 ,           0.0 ,       0.0 ,109.7148       ,-18.26399   ,-0.01333647      ,0.001624008      ,                 0.0 ,             0.0 ,             0.0 ,                 0.0 ,                 0.0 ,        0.0 ,2.187335795638802      ,            0.0 ,            0.0 ,            0.0 ,              0.0 ,                   0.0 ,  0.0 ,0.0 , 561.6851490742442   ,1.0                ,0.0 ,-62.83085074155632  ,-136.63051301448291 ,-1.8833244985155648     ,-67.35688580241809  ,          0.0 ,          0.0 ,-62.78137637218376  ,-136.68000548058586 ,-67.35688580241809  ,-266.8182730885136  , 41.40927950545753   , 88.93943886288608  , 71.72297187008387   ,-57.835522717032475   ,-131.63520205007165 ,-1.8833244985155648     ,-62.36155777789425  ,          0.0 ,          0.0 ,-57.78604399764545   ,-131.68465101602996 ,-62.36155777789425  ,-251.8323166615712  , 41.40927950545753   , 83.94409343830439   , 71.72297187008387   ,2.0954725248260714e-06  ,-2.3670807208009905e-06 ,-8.258722098625725e-07  ,      0.0 ,      0.0 ,      0.0 ,2.143923878757592e-06   ,-2.415532175068018e-06  ,      0.0 ,-2.716083280437161e-07  ,2.376633685077428e-06  ,0.2032548800382174   ,0.012614541707249951    ,-1.1396294037173319e-07 ,-1.6818494720338184e-08 ,2.3172048368549547e-07 ,76.83435090223982      ,0.0 ,39.88208193463947     ,1.5854104161028626      ,        0.0 ,        0.0 , 0.0
 0.0 ,0.0 ,           0.0 ,            0.0 ,            0.0 ,            0.0 ,              0.0 ,                   0.0 , 637.0 ,9.757384 ,-7.452735 ,           0.0 ,           0.0 ,       0.0 ,109.5338       ,-18.40611   ,-0.01165705      ,-0.0003333182    ,                 0.0 ,             0.0 ,             0.0 ,                 0.0 ,                 0.0 ,        0.0 ,1.9437200614963217     ,            0.0 ,            0.0 ,            0.0 ,              0.0 ,                   0.0 ,  0.0 ,0.0 , 558.0379283202446   ,1.0                ,0.0 ,-64.72931611789339  ,-139.1777008721495  ,-2.2053385838859727     ,-68.75177381414642  ,          0.0 ,          0.0 ,-64.6623681957129   ,-139.24466020727027 ,-68.75177381414642  ,-272.6588031593775  , 41.93044489944689   , 90.88627618158925  , 72.6256614880113    ,-59.73411829725687    ,-134.18253046280844 ,-2.2053385838859727     ,-63.756573813448625 ,          0.0 ,          0.0 ,-59.66716783653735   ,-134.2494426119261  ,-63.756573813448625 ,-257.67324116057364 , 41.93044489944689   , 85.89107038685789   , 72.6256614880113    ,2.5031945971268133e-06  ,-2.5584512436441897e-06 ,-1.7489883746287319e-06 ,      0.0 ,      0.0 ,      0.0 ,2.7195147714218104e-06  ,-2.774771158284178e-06  ,      0.0 ,-5.5256343261142324e-08 ,2.8680026731004676e-06 ,0.04367018105524296  ,-2.9976751700791064e-07 ,-5.947227298493822e-08  ,0.0                     ,3.069011395507064e-07  ,115.08854172205743     ,0.0 ,0.0                   ,0.0                     ,        0.0 ,        0.0 , 0.0
 0.0 ,0.0 ,           0.0 ,            0.0 ,            0.0 ,            0.0 ,              0.0 ,                   0.0 , 638.0 ,11.69806 ,-7.609605 ,           0.0 ,           0.0 ,       0.0 ,108.9725       ,-18.50685   ,-0.007756891     ,-0.001147057     ,                 0.0 ,             0.0 ,             0.0 ,                 0.0 ,                 0.0 ,        0.0 ,2.488694349782951      ,            0.0 ,            0.0 ,            0.0 ,              0.0 ,                   0.0 ,  0.0 ,0.0 , 555.9725942338337   ,1.0                ,0.0 ,-66.76745337294928  ,-142.13880250254172 ,-2.380793439453214      ,-70.32631991773523  ,          0.0 ,          0.0 ,-66.69222433818193  ,-142.21405131119607 ,-70.32631991773523  ,-279.23258587062327 , 42.592830431543256  , 93.07752531517252  , 73.77294621709066   ,-61.77239687519252    ,-137.14379570485028 ,-2.380793439453214      ,-65.3312534952303   ,          0.0 ,          0.0 ,-61.697162877872316  ,-137.21894526602284 ,-65.3312534952303   ,-264.2474166009633  , 42.592830431543256  , 88.08246881705823   , 73.77294621709066   ,6.114599393892352e-07   ,-2.052817974608231e-06  ,-2.2683256866552128e-06 ,      0.0 ,      0.0 ,      0.0 ,1.0844585536529246e-06  ,-2.525816730212598e-06  ,      0.0 ,-1.4413581269412954e-06 ,1.92324163719143e-06   ,0.2887244673596502   ,0.020372580157103488    ,-1.5139213502974255e-07 ,-1.123822697009891e-08  ,2.798239269245085e-07  ,52.952399709544046     ,0.0 ,60.389603442166916    ,2.479184215072671       ,        0.0 ,        0.0 , 0.0
 0.0 ,0.0 ,           0.0 ,            0.0 ,            0.0 ,            0.0 ,              0.0 ,                   0.0 , 639.0 ,13.62278 ,-7.716171 ,           0.0 ,           0.0 ,       0.0 ,108.5757       ,-18.57374   ,-0.01170112      ,-0.0005362565    ,                 0.0 ,             0.0 ,             0.0 ,                 0.0 ,                 0.0 ,        0.0 ,1.2642482232042314     ,            0.0 ,            0.0 ,            0.0 ,              0.0 ,                   0.0 ,  0.0 ,0.0 , 569.9336746470677   ,1.0                ,0.0 ,-68.24419220672385  ,-144.17821337143835 ,-2.496914434000737      ,-71.41372858090176  ,          0.0 ,          0.0 ,-68.16202780125315  ,-144.2603607677292  ,-71.41372858090176  ,-283.836167656008   , 43.03014825789053   , 94.6120465448601   , 74.53040662637514   ,-63.24956873605309    ,-139.1836183981432  ,-2.496914434000737      ,-66.41910256259303  ,          0.0 ,          0.0 ,-63.16740178294441   ,-139.2657393696117  ,-66.41910256259303  ,-268.85227925274387 , 43.03014825789053   , 89.61742052655137   , 74.53040662637514   ,1.6603910830437463e-06  ,-1.7607461740300635e-06 ,-2.9414928382270694e-06 ,      0.0 ,      0.0 ,      0.0 ,2.239518387634142e-06   ,-2.3398734786204592e-06 ,      0.0 ,-1.0035516677740571e-07 ,2.290948519868662e-06  ,0.2951535827470153   ,0.020787127863681636    ,-4.927046154374413e-07  ,-1.146654578178252e-08  ,7.1442621129343e-07    ,49.881016722552715     ,0.0 ,61.616494706478036    ,2.5295519817529675      ,        0.0 ,        0.0 , 0.0
 0.0 ,0.0 ,           0.0 ,            0.0 ,            0.0 ,            0.0 ,              0.0 ,                   0.0 , 640.0 ,15.53966 ,-7.784833 ,           0.0 ,           0.0 ,       0.0 ,108.3348       ,-18.61831   ,-0.01295173      ,-0.0006047639    ,                 0.0 ,             0.0 ,             0.0 ,                 0.0 ,                 0.0 ,        0.0 ,0.9930191749871584     ,            0.0 ,            0.0 ,            0.0 ,              0.0 ,                   0.0 ,  0.0 ,0.0 , 571.1781389378804   ,1.0                ,0.0 ,-69.63002180096545  ,-145.37148024532615 ,-2.4459424717242637     ,-72.15102472677643  ,          0.0 ,          0.0 ,-69.55088464493124  ,-145.45059457681148 ,-72.15102472677643  ,-287.1524815846651  , 43.09171200790004   , 95.71750806190289  , 74.63704024704109   ,-64.63554659958521    ,-140.37695743576296 ,-2.4459424717242637     ,-67.15655202886677  ,          0.0 ,          0.0 ,-64.55640944355099   ,-140.45612211628952 ,-67.15655202886677  ,-272.1690885397226  , 43.09171200790004   , 90.72302284664028   , 74.63704024704109   ,1.1740261930280147e-07  ,-6.711597612291981e-07  ,-2.3953337017862472e-06 ,      0.0 ,      0.0 ,      0.0 ,1.0030719872070518e-06  ,-1.5568292555623371e-06 ,      0.0 ,-5.537572929715383e-07  ,1.2901858553944323e-06 ,0.16429874517423254  ,0.010244912862773832    ,-8.467788319533217e-07  ,-2.902226669843155e-09  ,1.4452159710730115e-06 ,80.18328822200118      ,0.0 ,29.550408403024687    ,1.2297462657195846      ,        0.0 ,        0.0 , 0.0
 0.0 ,0.0 ,           0.0 ,            0.0 ,            0.0 ,            0.0 ,              0.0 ,                   0.0 , 641.0 ,17.45442 ,-7.829584 ,           0.0 ,           0.0 ,       0.0 ,108.1884       ,-18.64842   ,-0.01256642      ,-0.0006670925    ,                 0.0 ,             0.0 ,             0.0 ,                 0.0 ,                 0.0 ,        0.0 ,1.5015558556420885     ,            0.0 ,            0.0 ,            0.0 ,              0.0 ,                   0.0 ,  0.0 ,0.0 , 558.5863870443585   ,0.9999999999999999 ,0.0 ,-70.61122409012516  ,-146.07062400769695 ,-2.526211182332453      ,-72.63182603884752  ,          0.0 ,          0.0 ,-70.52667980377734  ,-146.15515840205205 ,-72.63182603884752  ,-289.3136292236313  , 43.07018140013629   , 96.43789471099592  , 74.59975235230564   ,-65.61636891899958    ,-141.07572387775997 ,-2.526211182332453      ,-67.63696588876755  ,          0.0 ,          0.0 ,-65.53182463265176   ,-141.16030811652954 ,-67.63696588876755  ,-274.32907873310535 , 43.07018140013629   , 91.44300961127348   , 74.59975235230564   ,1.2651390083652548e-06  ,-1.488472896275052e-06  ,-4.927938318619639e-06  ,      0.0 ,      0.0 ,      0.0 ,2.7110510070605866e-06  ,-2.9343847451072033e-06 ,      0.0 ,-2.2333373830291707e-07 ,2.82885049865752e-06   ,0.285061072022671    ,0.0208493868930757      ,-1.281551457174574e-07  ,-5.906814183661957e-09  ,1.258798284948925e-07  ,51.05453247842008      ,0.0 ,60.14305267804007     ,2.502865389577007       ,        0.0 ,        0.0 , 0.0
 0.0 ,0.0 ,           0.0 ,            0.0 ,            0.0 ,            0.0 ,              0.0 ,                   0.0 , 642.0 ,19.37018 ,-7.863793 ,           0.0 ,           0.0 ,       0.0 ,108.0518       ,-18.66897   ,-0.01186009      ,-0.0007276385    ,                 0.0 ,             0.0 ,             0.0 ,                 0.0 ,                 0.0 ,        0.0 ,2.999669205018575      ,            0.0 ,            0.0 ,            0.0 ,              0.0 ,                   0.0 ,  0.0 ,0.0 , 559.6419580451027   ,1.0                ,0.0 ,-71.69758961337865  ,-146.59238099186223 ,-2.5287563695282476     ,-73.05198716879389  ,          0.0 ,          0.0 ,-71.61230530705586  ,-146.6777102542706  ,-73.05198716879389  ,-291.34198785094907 , 42.930243823941325  , 97.11399094119149  , 74.35736398042587   ,-66.7028276839401     ,-141.5976290657316  ,-2.5287563695282476     ,-68.05722025399348  ,          0.0 ,          0.0 ,-66.61754338092526   ,-141.68295829506053 ,-68.05722025399348  ,-276.357681992335   , 42.930243823941325  , 92.11923400373071   , 74.35736398042587   ,-3.0119948725661934e-06 ,-8.051382629937693e-08  ,-3.427771406784512e-06  ,      0.0 ,      0.0 ,      0.0 ,7.106842543729876e-07   ,-3.8031929032857005e-06 ,      0.0 ,-3.092508648912713e-06  ,2.4292781349129663e-06 ,0.5212146277285084   ,0.04559661967896674     ,-5.458356045826171e-07  ,-1.385268670020459e-08  ,8.784892550164771e-11  ,0.03944883993910211    ,0.0 ,110.20234661348977    ,4.993109399542962       ,        0.0 ,        0.0 , 0.0
 0.0 ,0.0 ,           0.0 ,            0.0 ,            0.0 ,            0.0 ,              0.0 ,                   0.0 , 643.0 ,21.28855 ,-7.892123 ,           0.0 ,           0.0 ,       0.0 ,107.9087       ,-18.683     ,-0.01125055      ,-0.0007375136    ,                 0.0 ,             0.0 ,             0.0 ,                 0.0 ,                 0.0 ,        0.0 ,1.0043085962676146     ,            0.0 ,            0.0 ,            0.0 ,              0.0 ,                   0.0 ,  0.0 ,0.0 , 560.6963781769541   ,0.9999999999999999 ,0.0 ,-72.35591035663043  ,-147.0752182044111  ,-2.5162629843993405     ,-73.362374488879    ,          0.0 ,          0.0 ,-72.27122013408908  ,-147.1599034188576  ,-73.362374488879    ,-292.7934681129565  , 42.925989314657     , 97.59782103244703  , 74.34999574152596   ,-67.36127734776458    ,-142.080565356034   ,-2.5162629843993405     ,-68.36774647191832  ,          0.0 ,          0.0 ,-67.27659710151296   ,-142.16520053287772 ,-68.36774647191832  ,-277.8096090184141  , 42.925989314657     , 92.60321296487982   , 74.34999574152596   ,-2.595396797714732e-07  ,-3.28850563399902e-07   ,-2.2221712536367904e-06 ,      0.0 ,      0.0 ,      0.0 ,8.185978444450071e-07   ,-1.4069879873040742e-06 ,      0.0 ,-5.883901434518239e-07  ,1.125740550503838e-06  ,0.2837197302846975   ,0.025140589111744337    ,2.752611681160179e-07   ,-2.2374104909222017e-07 ,1.3338890298572095e-07 ,59.81180670832957      ,0.0 ,49.34716689842608     ,2.489020231116899       ,        0.0 ,        0.0 , 0.0
 0.0 ,0.0 ,           0.0 ,            0.0 ,            0.0 ,            0.0 ,              0.0 ,                   0.0 , 644.0 ,23.20968 ,-7.917884 ,           0.0 ,           0.0 ,       0.0 ,107.7454       ,-18.69243   ,-0.01108286      ,-0.0007404554    ,                 0.0 ,             0.0 ,             0.0 ,                 0.0 ,                 0.0 ,        0.0 ,2.501743047205215      ,            0.0 ,            0.0 ,            0.0 ,              0.0 ,                   0.0 ,  0.0 ,0.0 , 561.7194607388698   ,1.0                ,0.0 ,-73.21291737698829  ,-147.52193852982526 ,-2.584141071913243      ,-73.70421327792559  ,          0.0 ,          0.0 ,-73.1231622279488   ,-147.61165877855134 ,-73.70421327792559  ,-294.4390592228643  , 42.839524531074964  , 98.14633480377842  , 74.20022942453141   ,-68.21820448026574    ,-142.52723574094975 ,-2.584141071913243      ,-68.70949039700142  ,          0.0 ,          0.0 ,-68.12844432959416   ,-142.61700565738727 ,-68.70949039700142  ,-279.45490049130734 , 42.839524531074964  , 93.15165678504259   , 74.20022942453141   ,-2.7167918846687187e-06 ,2.929065826208809e-07   ,-4.311552837645965e-06  ,      0.0 ,      0.0 ,      0.0 ,1.5036048583892245e-06  ,-3.92749036046448e-06   ,      0.0 ,-2.4238852538999064e-06 ,2.815236835849408e-06  ,0.046529293625704626 ,6.635937260729228e-05   ,-6.903374382251325e-09  ,-9.227945619339521e-12  ,4.338958458283989e-07  ,109.54642508178873     ,0.0 ,0.1866698922135279    ,0.007892127632751112    ,        0.0 ,        0.0 , 0.0
 0.0 ,0.0 ,           0.0 ,            0.0 ,            0.0 ,            0.0 ,              0.0 ,                   0.0 , 645.0 ,25.13316 ,-7.942581 ,           0.0 ,           0.0 ,       0.0 ,107.559        ,-18.69848   ,-0.01093001      ,-0.0007599063    ,                 0.0 ,             0.0 ,             0.0 ,                 0.0 ,                 0.0 ,        0.0 ,2.5018036149682783     ,            0.0 ,            0.0 ,            0.0 ,              0.0 ,                   0.0 ,  0.0 ,0.0 , 562.7271694881651   ,1.0                ,0.0 ,-73.973331193343    ,-147.9400766112201  ,-2.5974916773599297     ,-74.01090160506052  ,          0.0 ,          0.0 ,-73.88222270512323  ,-148.031195013559   ,-74.01090160506052  ,-295.9243043572351  , 42.7730085167033    , 98.64143645842375  , 74.08502048608034   ,-68.97864817872608    ,-142.94542354507462 ,-2.5974916773599297     ,-69.01621857326741  ,          0.0 ,          0.0 ,-68.88753969050629   ,-143.03649193881375 ,-69.01621857326741  ,-280.94024533056046 , 42.7730085167033    , 93.6467683725222    , 74.08502048608034   ,-3.098451578622767e-06  ,5.835710314146298e-07   ,-4.242469948823917e-06  ,      0.0 ,      0.0 ,      0.0 ,1.6318787169439336e-06  ,-4.146759764873517e-06  ,      0.0 ,-2.5148810479295833e-06 ,2.987195709895409e-06  ,0.2744789570011209   ,0.02121548622654536     ,-2.1848218722460085e-07 ,-2.929139649177461e-09  ,2.2415888003828097e-07 ,50.104656871381025     ,0.0 ,59.29136306787293     ,2.5067744696560568      ,        0.0 ,        0.0 , 0.0
 0.0 ,0.0 ,           0.0 ,            0.0 ,            0.0 ,            0.0 ,              0.0 ,                   0.0 , 646.0 ,27.05841 ,-7.966895 ,           0.0 ,           0.0 ,       0.0 ,107.3513       ,-18.70202   ,-0.01133016      ,-0.0008152653    ,                 0.0 ,             0.0 ,             0.0 ,                 0.0 ,                 0.0 ,        0.0 ,1.5019854514174473     ,            0.0 ,            0.0 ,            0.0 ,              0.0 ,                   0.0 ,  0.0 ,0.0 , 563.7272055373861   ,1.0                ,0.0 ,-74.66565180576532  ,-148.35753116251055 ,-2.5278751463389364     ,-74.30301932063156  ,          0.0 ,          0.0 ,-74.57895867930054  ,-148.4441694630163  ,-74.30301932063156  ,-297.32617239169844 , 42.72605235875861   , 99.10872580895654  , 74.00369321095829   ,-69.67112318529364    ,-143.36297773502673 ,-2.5278751463389364     ,-69.30849069834476  ,          0.0 ,          0.0 ,-69.58443005882884   ,-143.44966585513862 ,-69.30849069834476  ,-282.3426114058227  , 42.72605235875861   , 94.11421709738033   , 74.00369321095829   ,-2.11955679960443e-06   ,4.7287277097869947e-07  ,-1.5742407020728562e-06 ,      0.0 ,      0.0 ,      0.0 ,6.947551612811016e-07   ,-2.341439540484317e-06  ,      0.0 ,-1.64668437868926e-06   ,1.5909158634272696e-06 ,0.5059031071602483   ,0.04650977272297645     ,-1.7437809413196913e-07 ,-8.540761003594622e-08  ,2.812912117741061e-10  ,0.20306315442784803    ,0.0 ,107.89947415895514    ,4.985969825533033       ,        0.0 ,        0.0 , 0.0
 0.0 ,0.0 ,           0.0 ,            0.0 ,            0.0 ,            0.0 ,              0.0 ,                   0.0 , 647.0 ,28.98482 ,-7.991116 ,           0.0 ,           0.0 ,       0.0 ,107.126        ,-18.70371   ,-0.0105792       ,-0.000221557     ,                 0.0 ,             0.0 ,             0.0 ,                 0.0 ,                 0.0 ,        0.0 ,0.5034117662434039     ,            0.0 ,            0.0 ,            0.0 ,              0.0 ,                   0.0 ,  0.0 ,0.0 , 564.7235576084471   ,0.9999999999999999 ,0.0 ,-75.31411654899634  ,-148.82432795178084 ,-2.5285357145892844     ,-74.60501278716633  ,          0.0 ,          0.0 ,-75.2271183562459   ,-148.911366059932   ,-74.60501278716633  ,-298.74345732900986 , 42.72236399963994   , 99.58115576635379  , 73.997308984189     ,-70.31957800767226    ,-143.82982440104146 ,-2.5285357145892844     ,-69.61047923086801  ,          0.0 ,          0.0 ,-70.23257979855785   ,-143.9168126867296  ,-69.61047923086801  ,-283.75984664899704 , 42.72236399963994   , 94.58662219091205   , 73.997308984189     ,-3.846342411078066e-07  ,8.300190453979831e-08   ,-2.6959939057743528e-06 ,      0.0 ,      0.0 ,      0.0 ,1.217970197687702e-06   ,-1.5196026846246815e-06 ,      0.0 ,-3.016323368952876e-07  ,1.371600744868246e-06  ,0.28003565313230994  ,0.02538046657400114     ,2.717998918745344e-09   ,-5.936515866456097e-08  ,8.257869729945328e-08  ,59.474084187044305     ,0.0 ,48.83769215520557     ,2.487888677224104       ,        0.0 ,        0.0 , 0.0
 0.0 ,0.0 ,           0.0 ,            0.0 ,            0.0 ,            0.0 ,              0.0 ,                   0.0 , 648.0 ,30.91176 ,-8.015361 ,           0.0 ,           0.0 ,       0.0 ,106.8871       ,-18.70407   ,-0.01025014      ,-0.0001421374    ,                 0.0 ,             0.0 ,             0.0 ,                 0.0 ,                 0.0 ,        0.0 ,2.0                    ,            0.0 ,            0.0 ,            0.0 ,              0.0 ,                   0.0 ,  0.0 ,0.0 , 565.7181426909386   ,1.0                ,0.0 ,-76.1549341578145   ,-149.2700461896381  ,-2.5683846247477224     ,-74.93667201180918  ,          0.0 ,          0.0 ,-76.06480776277382  ,-149.36017246387695 ,-74.93667201180918  ,-300.36164229886083 , 42.646489773595     ,100.12052750433563  , 73.86588716765515   ,-71.16033105340429    ,-144.2754430701277  ,-2.5683846247477224     ,-69.94206390516862  ,          0.0 ,          0.0 ,-71.07019967123347   ,-144.3655694953688  ,-69.94206390516862  ,-285.37783309133187 , 42.646489773595     , 95.12591939769506   , 73.86588716765515   ,-3.0348345186299513e-06 ,9.395725055020561e-07   ,-4.529207725761719e-06  ,      0.0 ,      0.0 ,      0.0 ,1.9653928609765432e-06  ,-4.060654974149046e-06  ,      0.0 ,-2.0952621131725027e-06 ,3.073199320038752e-06  ,0.04695155934312384  ,6.379850891082459e-05   ,-8.305417365315221e-10  ,-5.939039482290517e-13  ,3.7298201972423346e-07 ,108.53056434825487     ,0.0 ,0.17750168560147608   ,0.007543293885048095    ,        0.0 ,        0.0 , 0.0
 0.0 ,0.0 ,           0.0 ,            0.0 ,            0.0 ,            0.0 ,              0.0 ,                   0.0 , 649.0 ,32.83858 ,-8.039669 ,           0.0 ,           0.0 ,       0.0 ,106.638        ,-18.70347   ,-0.009913727     ,-6.729012e-05    ,                 0.0 ,             0.0 ,             0.0 ,                 0.0 ,                 0.0 ,        0.0 ,1.5043419425799798     ,            0.0 ,            0.0 ,            0.0 ,              0.0 ,                   0.0 ,  0.0 ,0.0 , 566.7116876000206   ,1.0                ,0.0 ,-76.84986004358393  ,-149.75535792394442 ,-2.5698303696163607     ,-75.25124433603432  ,          0.0 ,          0.0 ,-76.75935018294876  ,-149.84583782901936 ,-75.25124433603432  ,-301.85644738519295 , 42.638554800661275  ,100.6188041658674   , 73.8521407774885    ,-71.85524708174242    ,-144.76075502774222 ,-2.5698303696163607     ,-70.25663137419282  ,          0.0 ,          0.0 ,-71.76474720781187   ,-144.85128483519583 ,-70.25663137419282  ,-286.8726883330573  , 42.638554800661275  , 95.62420615353997   , 73.8521407774885    ,-2.6491386673493714e-06 ,9.173099603168486e-07   ,-4.924719995989423e-06  ,      0.0 ,      0.0 ,      0.0 ,2.214826739948995e-06   ,-3.946655596609612e-06  ,      0.0 ,-1.7318288566606172e-06 ,3.1249952409445644e-06 ,0.2713145364856969   ,0.02126339245417087     ,-1.407850625408346e-07  ,-1.9679291568749316e-10 ,1.378293699655385e-07  ,49.83266640191913      ,0.0 ,58.81603305234686     ,2.4995065312374996      ,        0.0 ,        0.0 , 0.0
 0.0 ,0.0 ,           0.0 ,            0.0 ,            0.0 ,            0.0 ,              0.0 ,                   0.0 , 650.0 ,34.76459 ,-8.064033 ,           0.0 ,           0.0 ,       0.0 ,106.3811       ,-18.70214   ,-0.009389321     ,1.25567e-05      ,                 0.0 ,             0.0 ,             0.0 ,                 0.0 ,                 0.0 ,        0.0 ,2.0065126892066942     ,            0.0 ,            0.0 ,            0.0 ,              0.0 ,                   0.0 ,  0.0 ,0.0 , 567.7046197627667   ,1.0                ,0.0 ,-77.46175865419019  ,-150.2883101217571  ,-2.512769604191215      ,-75.56230107049069  ,          0.0 ,          0.0 ,-77.37493896345859  ,-150.37515988744795 ,-75.56230107049069  ,-303.3124149157144  , 42.67965535907828   ,101.1041299520901   , 73.92333100245301   ,-72.46731525699285    ,-145.29390675559    ,-2.512769604191215      ,-70.56785767329336  ,          0.0 ,          0.0 ,-72.38049556626126   ,-145.38070646828612 ,-70.56785767329336  ,-288.3290547680515  , 42.67965535907828   , 96.1096815711745    , 73.92333100245301   ,-1.4111497830779135e-06 ,4.919026935904538e-07   ,-2.3828652004591614e-06 ,      0.0 ,      0.0 ,      0.0 ,1.0651587060035485e-06  ,-1.984405844445778e-06  ,      0.0 ,-9.192471384422294e-07  ,1.547702142685991e-06  ,0.046909781959085545 ,-1.649294515099809e-07  ,-2.4083340832292377e-08 ,0.0                     ,1.68946928119428e-07   ,107.44612792679467     ,0.0 ,0.0                   ,0.0                     ,        0.0 ,        0.0 , 0.0
 0.0 ,0.0 ,           0.0 ,            0.0 ,            0.0 ,            0.0 ,              0.0 ,                   0.0 , 651.0 ,36.68895 ,-8.088401 ,           0.0 ,           0.0 ,       0.0 ,106.1187       ,-18.70027   ,-0.009081537     ,0.0001275922     ,                 0.0 ,             0.0 ,             0.0 ,                 0.0 ,                 0.0 ,        0.0 ,3.9984163726995847     ,            0.0 ,            0.0 ,            0.0 ,              0.0 ,                   0.0 ,  0.0 ,0.0 , 568.6968201443317   ,1.0                ,0.0 ,-78.1520372849214   ,-150.78033021084832 ,-2.5996108946539165     ,-75.87671582553551  ,          0.0 ,          0.0 ,-78.05900307019994  ,-150.87336941780566 ,-75.87671582553551  ,-304.80907330516095 , 42.68346312878777   ,101.60303604696071  , 73.9299281532285    ,-73.15748942329279    ,-145.78577731039906 ,-2.5996108946539165     ,-70.88216297958917  ,          0.0 ,          0.0 ,-73.06445022425359   ,-145.878816438175   ,-70.88216297958917  ,-289.82546468145443 , 42.68346312878777   , 96.6084981618857    , 73.9299281532285    ,-3.3206351615589308e-06 ,1.206636228556273e-06   ,-4.647825947864131e-06  ,      0.0 ,      0.0 ,      0.0 ,2.1872608280804372e-06  ,-4.301259261098496e-06  ,      0.0 ,-2.1139984330180585e-06 ,3.301207326386769e-06  ,0.046501226155345986 ,-2.5509765408449753e-07 ,-1.159147050431253e-09  ,0.0                     ,2.551004996373825e-07  ,108.1951786017818      ,0.0 ,0.0                   ,0.0                     ,        0.0 ,        0.0 , 0.0
 0.0 ,0.0 ,           0.0 ,            0.0 ,            0.0 ,            0.0 ,              0.0 ,                   0.0 , 652.0 ,38.61062 ,-8.112628 ,           0.0 ,           0.0 ,       0.0 ,105.8535       ,-18.69798   ,-0.009259334     ,0.0002362341     ,                 0.0 ,             0.0 ,             0.0 ,                 0.0 ,                 0.0 ,        0.0 ,2.996240996567451      ,            0.0 ,            0.0 ,            0.0 ,              0.0 ,                   0.0 ,  0.0 ,0.0 , 569.6881256486284   ,1.0                ,0.0 ,-78.76865432800838  ,-151.18692763774504 ,-2.64050834049127       ,-76.14033946030432  ,          0.0 ,          0.0 ,-78.67237158919386  ,-151.2832153953546  ,-76.14033946030432  ,-306.09589137369034 , 42.67189095103893   ,102.0319671320599   , 73.90987861615011   ,-73.77415162098339    ,-146.19242500967528 ,-2.64050834049127       ,-71.14583176829916  ,          0.0 ,          0.0 ,-73.6778638971887    ,-146.288662654838   ,-71.14583176829916  ,-291.1123834139777  , 42.67189095103893   , 97.03745946631928   , 73.90987861615011   ,-3.903015498022253e-06  ,1.358083244421787e-06   ,-3.853695108690573e-06  ,      0.0 ,      0.0 ,      0.0 ,1.9992808328325288e-06  ,-4.544213587557464e-06  ,      0.0 ,-2.544932754724935e-06  ,3.354111075532877e-06  ,0.28051543585096     ,0.02526225753829901     ,-1.6162370111402656e-07 ,-1.702724522360275e-09  ,1.4430259922036062e-07 ,58.487239116247586     ,0.0 ,49.19601279136995     ,2.4911775087287458      ,        0.0 ,        0.0 , 0.0
 0.0 ,0.0 ,           0.0 ,            0.0 ,            0.0 ,            0.0 ,              0.0 ,                   0.0 , 653.0 ,40.52822 ,-8.136391 ,           0.0 ,           0.0 ,       0.0 ,105.5897       ,-18.69536   ,-0.00930534      ,0.0003106012     ,                 0.0 ,             0.0 ,             0.0 ,                 0.0 ,                 0.0 ,        0.0 ,1.9943053072734789     ,            0.0 ,            0.0 ,            0.0 ,              0.0 ,                   0.0 ,  0.0 ,0.0 , 570.6777606917718   ,1.0                ,0.0 ,-79.2421340622146   ,-151.4842210779961  ,-2.6091832409726825     ,-76.32888563367749  ,          0.0 ,          0.0 ,-79.14784583525973  ,-151.57851434964576 ,-76.32888563367749  ,-307.05526581461385 , 42.65519523357063   ,102.35175527153795  , 73.8809632822256    ,-74.24772659132176    ,-146.48986863790614 ,-2.6091832409726825     ,-71.33447317702137  ,          0.0 ,          0.0 ,-74.15343836238233   ,-146.58416190955575 ,-71.33447317702137  ,-292.0720583718221  , 42.65519523357063   , 97.35736773179082   , 73.8809632822256    ,-1.9367219694165416e-06 ,7.00643742742278e-07    ,-1.9171331727966615e-06 ,      0.0 ,      0.0 ,      0.0 ,1.0122311237237214e-06  ,-2.2483098487758558e-06 ,      0.0 ,-1.2360787250521344e-06 ,1.6688635889192839e-06 ,0.2718695978624672   ,0.021817228893471263    ,-5.739087825313455e-08  ,-1.1190871414651186e-08 ,1.634987414031563e-07  ,48.98365718237853      ,0.0 ,57.61203816450559     ,2.505737136876974       ,        0.0 ,        0.0 , 0.0
 0.0 ,0.0 ,           0.0 ,            0.0 ,            0.0 ,            0.0 ,              0.0 ,                   0.0 , 654.0 ,42.43992 ,-8.158992 ,           0.0 ,           0.0 ,       0.0 ,105.3349       ,-18.69248   ,-0.009075901     ,0.0004349839     ,                 0.0 ,             0.0 ,             0.0 ,                 0.0 ,                 0.0 ,        0.0 ,0.5054059336178406     ,            0.0 ,            0.0 ,            0.0 ,              0.0 ,                   0.0 ,  0.0 ,0.0 , 571.6639244322174   ,1.0                ,0.0 ,-79.71567917438568  ,-151.63112183342136 ,-2.536213545827829      ,-76.45708434885994  ,          0.0 ,          0.0 ,-79.62541939539119  ,-151.72140663157109 ,-76.45708434885994  ,-307.8039054562729  , 42.56952137839851   ,102.6012934634315   , 73.7325761387807    ,-74.72134595464235    ,-146.63681862389396 ,-2.536213545827829      ,-71.46275111890068  ,          0.0 ,          0.0 ,-74.63109118884356   ,-146.72710342204363 ,-71.46275111890068  ,-292.82089582769066 , 42.56952137839851   , 97.60698022751271   , 73.7325761387807    ,-1.7382183351105097e-06 ,5.709371845240645e-07   ,-1.7954371217307498e-06 ,      0.0 ,      0.0 ,      0.0 ,8.788754280788036e-07   ,-2.0461565796868397e-06 ,      0.0 ,-1.1672811516080366e-06 ,1.5008329856951839e-06 ,0.047382766394794565 ,-2.001146524571129e-07  ,-9.556238384404449e-09  ,0.0                     ,2.004736031058255e-07  ,106.41928392730621     ,0.0 ,0.0                   ,0.0                     ,        0.0 ,        0.0 , 0.0
 0.0 ,0.0 ,           0.0 ,            0.0 ,            0.0 ,            0.0 ,              0.0 ,                   0.0 , 655.0 ,44.34336 ,-8.178957 ,           0.0 ,           0.0 ,       0.0 ,105.1046       ,-18.68941   ,-0.009296        ,0.0005094636     ,                 0.0 ,             0.0 ,             0.0 ,                 0.0 ,                 0.0 ,        0.0 ,0.0                    ,            0.0 ,            0.0 ,            0.0 ,              0.0 ,                   0.0 ,  0.0 ,0.0 , 572.6405921811122   ,1.0                ,0.0 ,-80.03978241552488  ,-151.58546463582798 ,-2.377011630828073      ,-76.47571326006673  ,          0.0 ,          0.0 ,-79.95995013160379  ,-151.66525680549728 ,-76.47571326006673  ,-308.10099997491193 , 42.441523378926384  ,102.70031008857296  , 73.51087520042852   ,-75.04556999588598    ,-146.59121223654034 ,-2.377011630828073      ,-71.48149587407859  ,          0.0 ,          0.0 ,-74.96573771196489   ,-146.67105452046144 ,-71.48149587407859  ,-293.1183427832967  , 42.441523378926384  , 97.70609276926159   , 73.51087520042852   ,0.0                     ,0.0                     ,0.0                     ,      0.0 ,      0.0 ,      0.0 ,0.0                     ,0.0                     ,      0.0 ,0.0                     ,0.0                    ,0.5033954739850067   ,0.0477793686526848      ,-1.871436199128552e-07  ,-1.4125036868975897e-08 ,5.103017093511784e-10  ,0.21332991020178924    ,0.0 ,104.89058247048257    ,4.983119160404339       ,        0.0 ,        0.0 , 0.0
 0.0 ,0.0 ,           0.0 ,            0.0 ,            0.0 ,            0.0 ,              0.0 ,                   0.0 , 656.0 ,46.23548 ,-8.193035 ,           0.0 ,           0.0 ,       0.0 ,104.9316       ,-18.6862    ,-0.01119163      ,0.0008002962     ,                 0.0 ,             0.0 ,             0.0 ,                 0.0 ,                 0.0 ,        0.0 ,2.492493215134819      ,            0.0 ,            0.0 ,            0.0 ,              0.0 ,                   0.0 ,  0.0 ,0.0 , 573.5838209021271   ,1.0                ,0.0 ,-80.55282636022439  ,-150.95028663902764 ,-2.220228575329987      ,-76.31053414991773  ,          0.0 ,          0.0 ,-80.48198568827436  ,-151.02113208346708 ,-76.31053414991773  ,-307.81365731222013 , 41.98291005199309   ,102.60457214497606  , 72.71653569860928   ,-75.55851076970065    ,-145.95598564272132 ,-2.220228575329987      ,-71.31621851834302  ,          0.0 ,          0.0 ,-75.48767504966557   ,-146.026831638352   ,-71.31621851834302  ,-292.83070535534273 , 41.98291005199309   , 97.61024165765647   , 72.71653569860928   ,-4.685961654252903e-06  ,1.5080749718004804e-06  ,-4.537532504204005e-07  ,      0.0 ,      0.0 ,      0.0 ,1.5415473355015022e-06  ,-4.719434017953924e-06  ,      0.0 ,-3.1778866824524226e-06 ,3.262730122579832e-06  ,0.04941555930812776  ,0.00021361718750316177  ,-3.650620813877384e-10  ,-6.013514704664019e-11  ,4.904004111053747e-07  ,105.49635121595674     ,0.0 ,0.39300058540099864   ,0.02049754695284619     ,        0.0 ,        0.0 , 0.0
 0.0 ,0.0 ,           0.0 ,            0.0 ,            0.0 ,            0.0 ,              0.0 ,                   0.0 , 657.0 ,48.1126  ,-8.193525 ,           0.0 ,           0.0 ,       0.0 ,104.8935       ,-18.68288   ,-0.01002961      ,0.0007952802     ,                 0.0 ,             0.0 ,             0.0 ,                 0.0 ,                 0.0 ,        0.0 ,1.5040746087967927     ,            0.0 ,            0.0 ,            0.0 ,              0.0 ,                   0.0 ,  0.0 ,0.0 , 574.148676105052    ,1.0                ,0.0 ,-80.97483311755141  ,-150.4321920317273  ,-1.550101305320064      ,-76.16145721119355  ,          0.0 ,          0.0 ,-80.93686019018067  ,-150.47016519911952 ,-76.16145721119355  ,-307.5684676412398  , 41.597516936525345  ,102.5228441929012   , 72.04901528430887   ,-75.98045383877616    ,-145.43784788361518 ,-1.550101305320064      ,-71.16707794529822  ,          0.0 ,          0.0 ,-75.94248592639158   ,-145.4757709011456  ,-71.16707794529822  ,-292.58533476838033 , 41.597516936525345  , 97.5284498949273    , 72.04901528430887   ,-4.265840594625005e-06  ,1.457689525007576e-06   ,-1.4010800102659283e-06 ,      0.0 ,      0.0 ,      0.0 ,1.5446609405323064e-06  ,-4.352812011437731e-06  ,      0.0 ,-2.8081510696174293e-06 ,3.0581515015961604e-06 ,0.26697786576451543  ,0.021330462577930497    ,-8.557577884437696e-08  ,-4.072396908377069e-11  ,2.552381663603765e-07  ,48.761565363134835     ,0.0 ,57.89622284894032     ,2.4837782604033265      ,        0.0 ,        0.0 , 0.0
 0.0 ,0.0 ,           0.0 ,            0.0 ,            0.0 ,            0.0 ,              0.0 ,                   0.0 , 658.0 ,49.97065 ,-8.161438 ,           0.0 ,           0.0 ,       0.0 ,105.1805       ,-18.67948   ,-0.0006576244    ,0.000746777      ,                 0.0 ,             0.0 ,             0.0 ,                 0.0 ,                 0.0 ,        0.0 ,2.0063304761799268     ,            0.0 ,            0.0 ,            0.0 ,              0.0 ,                   0.0 ,  0.0 ,0.0 , 574.6035065504009   ,1.0                ,0.0 ,-80.76718295441682  ,-149.2304114368058  ,-0.004801311871412806   ,-75.62117151289259  ,          0.0 ,          0.0 ,-80.75542257207226  ,-149.2421575454382  ,-75.62117151289259  ,-305.6187416937079  , 41.10597971481825   ,101.87290244349796  , 71.1976420350444    ,-75.77283722540355    ,-144.23607623699374 ,-0.004801311871412806   ,-70.62683077670698  ,          0.0 ,          0.0 ,-75.7610769207084    ,-144.24782156913204 ,-70.62683077670698  ,-290.6356846130067  , 41.10597971481825   , 96.8785664671918    , 71.1976420350444    ,-4.14427800574821e-06   ,1.3977976292771345e-06  ,5.170103567380456e-08   ,      0.0 ,      0.0 ,      0.0 ,1.514481401405007e-06   ,-4.26096227715885e-06   ,      0.0 ,-2.746480376471075e-06  ,2.9946039938103374e-06 ,0.2652340048120919   ,0.021147515808458996    ,-8.387972058038826e-08  ,-4.037496658998958e-11  ,3.9876527109398457e-07 ,48.9812811182956       ,0.0 ,57.40005495054068     ,2.462492397890836       ,        0.0 ,        0.0 , 0.0
 0.0 ,0.0 ,           0.0 ,            0.0 ,            0.0 ,            0.0 ,              0.0 ,                   0.0 , 659.0 ,51.80437 ,-8.053704 ,           0.0 ,           0.0 ,       0.0 ,106.2234       ,-18.67605   ,0.006394417      ,0.0005315233     ,                 0.0 ,             0.0 ,             0.0 ,                 0.0 ,                 0.0 ,        0.0 ,2.0239516861112814     ,            0.0 ,            0.0 ,            0.0 ,              0.0 ,                   0.0 ,  0.0 ,0.0 , 575.5053128771599   ,1.0                ,0.0 ,-79.45874966818116  ,-147.7426000037409  ,1.2322716764528225      ,-74.7801474925673   ,          0.0 ,          0.0 ,-79.42789089490097  ,-147.77342961359304 ,-74.7801474925673   ,-301.9815219197651  , 40.87213964629099   ,100.66049037957785  , 70.79262005432821   ,-74.46430794779425    ,-142.74821746413744 ,1.2322716764528225      ,-69.78570595615687  ,          0.0 ,          0.0 ,-74.43344917451405   ,-142.77904707398957 ,-69.78570595615687  ,-286.9981764184215  , 40.87213964629099   , 95.66604413301727   , 70.79262005432821   ,-2.4632061256372395e-06 ,7.987062823318219e-07   ,-4.208584541787998e-07  ,      0.0 ,      0.0 ,      0.0 ,8.170484491318225e-07   ,-2.4815483108348903e-06 ,      0.0 ,-1.664499843305418e-06  ,1.7178768169221445e-06 ,0.04696227951976667  ,-2.350118882352252e-07  ,-2.9000991239114622e-09 ,0.0                     ,2.350477180116948e-07  ,107.18648381153913     ,0.0 ,0.0                   ,0.0                     ,        0.0 ,        0.0 , 0.0
 0.0 ,0.0 ,           0.0 ,            0.0 ,            0.0 ,            0.0 ,              0.0 ,                   0.0 , 660.0 ,53.6173  ,-7.84018  ,           0.0 ,           0.0 ,       0.0 ,108.3241       ,-18.67259   ,0.00708175       ,0.0003674171     ,                 0.0 ,             0.0 ,             0.0 ,                 0.0 ,                 0.0 ,        0.0 ,1.986440789333548      ,            0.0 ,            0.0 ,            0.0 ,              0.0 ,                   0.0 ,  0.0 ,0.0 , 577.0627903156205   ,1.0                ,0.0 ,-77.27919774694897  ,-144.4856214977745  ,1.924983023432114       ,-73.07827512548938  ,          0.0 ,          0.0 ,-77.22405605103619  ,-144.54078299104773 ,-73.07827512548938  ,-294.84309571715073 , 40.11977656429777   , 98.28104447568563  , 69.48949229633519   ,-72.28452312819088    ,-139.49098265417945 ,1.924983023432114       ,-68.08360540578582  ,          0.0 ,          0.0 ,-72.2293814322781    ,-139.54614414745265 ,-68.08360540578582  ,-279.8591254800405  , 40.11977656429777   , 93.28638441924757   , 69.48949229633519   ,-2.4881521666139435e-06 ,7.843332338032208e-07   ,-2.6360297715146956e-07 ,      0.0 ,      0.0 ,      0.0 ,7.896330578291627e-07   ,-2.4934519906398856e-06 ,      0.0 ,-1.7038184362005256e-06 ,1.7136448621751612e-06 ,0.2721627352137142   ,0.024338151183502084    ,-1.1644404836444392e-07 ,-2.4227666626798504e-09 ,9.690286599828868e-08  ,60.039229646449535     ,0.0 ,49.24573691112162     ,2.4465025818105373      ,        0.0 ,        0.0 , 0.0
 0.0 ,0.0 ,           0.0 ,            0.0 ,            0.0 ,            0.0 ,              0.0 ,                   0.0 , 661.0 ,55.4226  ,-7.445173 ,           0.0 ,           0.0 ,       0.0 ,112.2391       ,-18.66908   ,0.007531898      ,0.0007821005     ,                 0.0 ,             0.0 ,             0.0 ,                 0.0 ,                 0.0 ,        0.0 ,3.428589160876098      ,            0.0 ,            0.0 ,            0.0 ,              0.0 ,                   0.0 ,  0.0 ,0.0 , 582.5205445303008   ,0.9999999999999999 ,0.0 ,-73.7535317922924   ,-137.86207388213202 ,2.179488756604025       ,-69.77352221813214  ,          0.0 ,          0.0 ,-73.67942178284672  ,-137.93620466217914 ,-69.77352221813214  ,-281.38914091882833 , 38.279578848405265  , 93.79640122735131  , 66.30218133398793   ,-68.7584651227977     ,-132.86702520095295 ,2.179488756604025       ,-64.77846009757516  ,          0.0 ,          0.0 ,-68.68435498182895   ,-132.94115466576943 ,-64.77846009757516  ,-266.40395051577497 , 38.279578848405265  , 88.80132051647419   , 66.30218133398793   ,-4.507576537341672e-06  ,1.396335599098358e-06   ,1.262999262471969e-06   ,      0.0 ,      0.0 ,      0.0 ,1.4814846357257005e-06  ,-4.592725573969015e-06  ,      0.0 ,-3.1112409382433136e-06 ,3.167237158939072e-06  ,0.2753230477716446   ,0.02210092322911419     ,-2.1519371883245133e-07 ,-5.031967186726423e-10  ,1.238898317579901e-07  ,49.250008638334315     ,0.0 ,63.96663909594827     ,2.6574729746272885      ,        0.0 ,        0.0 , 0.0
 0.0 ,0.0 ,           0.0 ,            0.0 ,            0.0 ,            0.0 ,              0.0 ,                   0.0 , 662.0 ,57.30099 ,-7.191963 ,           0.0 ,           0.0 ,       0.0 ,114.7344       ,-18.6654    ,0.006404109      ,0.0005074911     ,                 0.0 ,             0.0 ,             0.0 ,                 0.0 ,                 0.0 ,        0.0 ,1.9838251005404874     ,            0.0 ,            0.0 ,            0.0 ,              0.0 ,                   0.0 ,  0.0 ,0.0 , 580.1481017856007   ,1.0                ,0.0 ,-71.29533568176484  ,-133.87689583984212 ,2.432630546426613       ,-67.70821296495889  ,          0.0 ,          0.0 ,-71.19863493321087  ,-133.9736217277439  ,-67.70821296495889  ,-272.880469201414   , 37.29345885146682   , 90.96017794753396  , 64.59416419405454   ,-66.30011258174105    ,-128.8817375587001  ,2.432630546426613       ,-62.712989776846186 ,          0.0 ,          0.0 ,-66.20340679635703   ,-128.97841307830143 ,-62.712989776846186 ,-257.8947947908524  , 37.29345885146682   , 85.96494000128676   , 64.59416419405454   ,-2.371152027187796e-06  ,7.935079805783503e-07   ,3.17468699242524e-07    ,      0.0 ,      0.0 ,      0.0 ,8.015526172363249e-07   ,-2.3791966638457708e-06 ,      0.0 ,-1.5776440466094462e-06 ,1.6542995545383596e-06 ,0.25891904121096065  ,0.020040647268274155    ,-6.363497180737665e-08  ,-1.6972399520539904e-09 ,1.3099109944783267e-07 ,52.07298022367831      ,0.0 ,63.60854390833321     ,2.5236406914159013      ,        0.0 ,        0.0 , 0.0
 0.0 ,0.0 ,           0.0 ,            0.0 ,            0.0 ,            0.0 ,              0.0 ,                   0.0 , 663.0 ,59.21497 ,-7.019213 ,           0.0 ,           0.0 ,       0.0 ,116.4239       ,-18.66161   ,0.006913614      ,0.0003516298     ,                 0.0 ,             0.0 ,             0.0 ,                 0.0 ,                 0.0 ,        0.0 ,0.5066585293919388     ,            0.0 ,            0.0 ,            0.0 ,              0.0 ,                   0.0 ,  0.0 ,0.0 , 580.4004982121705   ,1.0                ,0.0 ,-69.59027448421332  ,-130.7859412520608  ,2.693973100979491       ,-66.17337576216894  ,          0.0 ,          0.0 ,-69.47173336394279  ,-130.90452708856714 ,-66.17337576216894  ,-266.5496115020221  , 36.46005387755229   , 88.84987880208035  , 63.15066208111854   ,-64.59487009045658    ,-125.79059173332718 ,2.693973100979491       ,-61.1779664058017   ,          0.0 ,          0.0 ,-64.47632400757554   ,-125.90907786179142 ,-61.1779664058017   ,-251.56341331971623 , 36.46005387755229   , 83.8544744083236    , 63.15066208111854   ,-2.1152619493167385e-06 ,7.336142766933613e-07   ,8.962918155989471e-07   ,      0.0 ,      0.0 ,      0.0 ,8.024488297609717e-07   ,-2.18409649946477e-06   ,      0.0 ,-1.3816476726233777e-06 ,1.5456274875343068e-06 ,0.48430965824347183  ,0.04274535760344118     ,-1.6789111624021455e-07 ,-4.9411895211370994e-09 ,0.0                    ,1.6796399618858209e-07 ,0.0 ,117.47388917903166    ,4.995405877981577       ,        0.0 ,        0.0 , 0.0
 0.0 ,0.0 ,           0.0 ,            0.0 ,            0.0 ,            0.0 ,              0.0 ,                   0.0 , 664.0 ,61.14082 ,-6.880936 ,           0.0 ,           0.0 ,       0.0 ,117.7681       ,-18.65775   ,0.008046485      ,-2.735867e-05    ,                 0.0 ,             0.0 ,             0.0 ,                 0.0 ,                 0.0 ,        0.0 ,2.5046330985347205     ,            0.0 ,            0.0 ,            0.0 ,              0.0 ,                   0.0 ,  0.0 ,0.0 , 582.0161774734281   ,1.0                ,0.0 ,-67.8930770405899   ,-128.22442701424137 ,2.8624917379179142      ,-64.83137821865559  ,          0.0 ,          0.0 ,-67.75562368374246  ,-128.361949961087   ,-64.83137821865559  ,-260.9489420929979  , 35.86573723212911   , 86.98298066857396  , 62.121278739085     ,-62.89753599473168    ,-123.22892084554792 ,2.8624917379179142      ,-59.835832170104425 ,          0.0 ,          0.0 ,-62.7600776351913    ,-123.36634417491499 ,-59.835832170104425 ,-245.96232358691745 , 35.86573723212911   , 81.9874346200228    , 62.121278739085     ,-4.6464500224224955e-06 ,1.4685655838457414e-06  ,1.7081732733349197e-06  ,      0.0 ,      0.0 ,      0.0 ,1.587072892073978e-06   ,-4.764957827094812e-06  ,      0.0 ,-3.1778844385767542e-06 ,3.3064387229133403e-06 ,0.48182701249472315  ,0.042047937307459975    ,-1.7716346506726686e-07 ,-5.655690113937369e-09  ,0.0                    ,1.772538654133703e-07  ,0.0 ,119.7523162078606     ,4.995542551029899       ,        0.0 ,        0.0 , 0.0
 0.0 ,0.0 ,           0.0 ,            0.0 ,            0.0 ,            0.0 ,              0.0 ,                   0.0 , 665.0 ,63.07129 ,-6.757585 ,           0.0 ,           0.0 ,       0.0 ,118.9624       ,-18.65383   ,0.009113557      ,-7.135884e-05    ,                 0.0 ,             0.0 ,             0.0 ,                 0.0 ,                 0.0 ,        0.0 ,3.5001504204823357     ,            0.0 ,            0.0 ,            0.0 ,              0.0 ,                   0.0 ,  0.0 ,0.0 , 583.0160060534783   ,1.0                ,0.0 ,-66.26925082099186  ,-125.87938593254421 ,3.1644554774005567      ,-63.592406053713034 ,          0.0 ,          0.0 ,-66.09903738549514  ,-126.04960962887179 ,-63.592406053713034 ,-255.74102826989554 , 35.35840198980172   , 85.24700770251351  , 61.24255107861043   ,-61.2736848311059     ,-120.8837801974723  ,3.1644554774005567      ,-58.59683502286228  ,          0.0 ,          0.0 ,-61.10346635464438   ,-121.05400346910983 ,-58.59683502286228  ,-240.75431021529965 , 35.35840198980172   , 80.25143667166276   , 61.24255107861043   ,-3.831766691528716e-06  ,1.175135304018743e-06   ,2.5097710623403314e-06  ,      0.0 ,      0.0 ,      0.0 ,1.5005415444237577e-06  ,-4.1571730861355056e-06 ,      0.0 ,-2.656631537464847e-06  ,2.931149198055306e-06  ,0.04375904454469791  ,0.00016252905602612993  ,-9.333932483477943e-09  ,-2.0463757693586957e-11 ,2.8466970391371096e-07 ,119.25189120986127     ,0.0 ,0.5534828200843832    ,0.021218890566027625    ,        0.0 ,        0.0 , 0.0
 0.0 ,0.0 ,           0.0 ,            0.0 ,            0.0 ,            0.0 ,              0.0 ,                   0.0 , 666.0 ,65.00284 ,-6.640707 ,           0.0 ,           0.0 ,       0.0 ,120.0911       ,-18.64982   ,0.01139314       ,-0.0001598291    ,                 0.0 ,             0.0 ,             0.0 ,                 0.0 ,                 0.0 ,        0.0 ,1.5125175631884922     ,            0.0 ,            0.0 ,            0.0 ,              0.0 ,                   0.0 ,  0.0 ,0.0 , 584.025375473995    ,1.0                ,0.0 ,-64.52140507576732  ,-123.79378938386614 ,3.538218072095141       ,-62.41555098646252  ,          0.0 ,          0.0 ,-64.30813213862173  ,-124.00708721945233 ,-62.41555098646252  ,-250.7307455604062  , 35.026334438211066  , 83.57691509065052  , 60.667393807830294  ,-59.525834047342585   ,-118.79823312508455 ,3.538218072095141       ,-57.41998490906896  ,          0.0 ,          0.0 ,-59.312566061228175  ,-119.01148099688871 ,-57.41998490906896  ,-235.7440272737495  , 35.026334438211066  , 78.58134901325695   , 60.667393807830294  ,-1.374774523228695e-06  ,3.9638151647772065e-07  ,1.4168007032264808e-06  ,      0.0 ,      0.0 ,      0.0 ,6.44870769681498e-07    ,-1.6232635279739726e-06 ,      0.0 ,-9.783927582924748e-07  ,1.1687084075980345e-06 ,0.25284987303767675  ,0.01918659930789589     ,-1.7343331169855821e-07 ,-6.935517547910577e-09  ,9.768632931907237e-08  ,54.946640569090974     ,0.0 ,65.00697742231043     ,2.4963464361110104      ,        0.0 ,        0.0 , 0.0
 0.0 ,0.0 ,           0.0 ,            0.0 ,            0.0 ,            0.0 ,              0.0 ,                   0.0 , 667.0 ,66.93375 ,-6.526628 ,           0.0 ,           0.0 ,       0.0 ,121.1905       ,-18.64568   ,0.01495961       ,-0.0001458571    ,                 0.0 ,             0.0 ,             0.0 ,                 0.0 ,                 0.0 ,        0.0 ,2.0086104344671605     ,            0.0 ,            0.0 ,            0.0 ,              0.0 ,                   0.0 ,  0.0 ,0.0 , 585.0419714554446   ,1.0                ,0.0 ,-62.79234959956047  ,-121.93799346674395 ,3.954535661422224       ,-61.326050981847644 ,          0.0 ,          0.0 ,-62.527914575187395 ,-122.20242856818331 ,-61.326050981847644 ,-246.0564092155016  , 34.80595618105256   , 82.01880463480602  , 60.285689610411964  ,-57.79660940968426    ,-116.94226332477905 ,3.954535661422224       ,-56.33031083988276  ,          0.0 ,          0.0 ,-57.532174433222515  ,-117.20671293252761 ,-56.33031083988276  ,-231.06919333478942 , 34.80595618105256   , 77.02306449284113   , 60.285689610411964  ,-3.071224690247011e-06  ,9.511485334887627e-07   ,2.850314545303636e-06   ,      0.0 ,      0.0 ,      0.0 ,1.4158444009019819e-06  ,-3.535920755070297e-06  ,      0.0 ,-2.1200763541683154e-06 ,2.550415131018305e-06  ,0.47962531885198006  ,0.041156240238796535    ,-2.702371932564944e-07  ,-2.0348133954508035e-08 ,0.0                    ,2.710802579250996e-07  ,0.0 ,122.04524579682105    ,4.99574064724193        ,        0.0 ,        0.0 , 0.0
 0.0 ,0.0 ,           0.0 ,            0.0 ,            0.0 ,            0.0 ,              0.0 ,                   0.0 , 668.0 ,68.86293 ,-6.413727 ,           0.0 ,           0.0 ,       0.0 ,122.2763       ,-18.64135   ,0.01804868       ,0.0001361642     ,                 0.0 ,             0.0 ,             0.0 ,                 0.0 ,                 0.0 ,        0.0 ,1.010014683244485      ,            0.0 ,            0.0 ,            0.0 ,              0.0 ,                   0.0 ,  0.0 ,0.0 , 586.0604273693334   ,1.0                ,0.0 ,-60.785145967152246 ,-120.32870759910773 ,4.212297583570638       ,-60.27086072618433  ,          0.0 ,          0.0 ,-60.48859887889866  ,-120.62520974298573 ,-60.27086072618433  ,-241.38471948718697 , 34.784576620288426  , 80.46156154025141  , 60.24865621562421   ,-55.78926099151453    ,-115.33282759004962 ,4.212297583570638       ,-55.27497575054663  ,          0.0 ,          0.0 ,-55.492718897709935  ,-115.62934986194387 ,-55.27497575054663  ,-226.39705462711467 , 34.784576620288426  , 75.46568152009128   , 60.24865621562421   ,-3.686033760509918e-06  ,1.0836360915863537e-06  ,2.839241764837302e-06   ,      0.0 ,      0.0 ,      0.0 ,1.4786958382103838e-06  ,-4.0810930135891255e-06 ,      0.0 ,-2.6023971753787426e-06 ,2.88008807329749e-06   ,0.4832172277409963   ,0.04044399709666982     ,-1.7508524487698252e-07 ,-3.077828756227687e-08  ,0.0                    ,1.7784858668326336e-07 ,0.0 ,124.33058068623626    ,4.995882486207492       ,        0.0 ,        0.0 , 0.0
 0.0 ,0.0 ,           0.0 ,            0.0 ,            0.0 ,            0.0 ,              0.0 ,                   0.0 , 669.0 ,70.78933 ,-6.301103 ,           0.0 ,           0.0 ,       0.0 ,123.3565       ,-18.63675   ,0.01965944       ,-0.0006651279    ,                 0.0 ,             0.0 ,             0.0 ,                 0.0 ,                 0.0 ,        0.0 ,1.4994217478022658     ,            0.0 ,            0.0 ,            0.0 ,              0.0 ,                   0.0 ,  0.0 ,0.0 , 587.0829689665513   ,0.9999999999999999 ,0.0 ,-58.54299488967882  ,-118.8116097237124  ,4.172103429835701       ,-59.21248768249427  ,          0.0 ,          0.0 ,-58.25492482312463  ,-119.09966458766596 ,-59.21248768249427  ,-236.56706733636315 , 34.85791877889517   , 78.85569075563993  , 60.3756842302265    ,-53.5470642336772     ,-113.81566894611854 ,4.172103429835701       ,-54.216557026492644 ,          0.0 ,          0.0 ,-53.2589942192188    ,-114.1037390011077  ,-54.216557026492644 ,-221.57925066358547 , 34.85791877889517   , 73.85976009963831   , 60.3756842302265    ,-3.4869128210460814e-06 ,9.552967634344464e-07   ,2.9121935420675444e-06  ,      0.0 ,      0.0 ,      0.0 ,1.3940730011255546e-06  ,-3.925688809431623e-06  ,      0.0 ,-2.5316158083060688e-06 ,2.758804385836936e-06  ,0.2644608929679027   ,0.018805420091230984    ,-1.5238330145789823e-07 ,-3.0472369534664466e-08 ,1.0688703603994457e-07 ,57.207750393366695     ,0.0 ,67.65988976435946     ,2.5214041031613075      ,        0.0 ,        0.0 , 0.0
 0.0 ,0.0 ,           0.0 ,            0.0 ,            0.0 ,            0.0 ,              0.0 ,                   0.0 , 670.0 ,72.71184 ,-6.187811 ,           0.0 ,           0.0 ,       0.0 ,124.4395       ,-18.63177   ,0.02163994       ,-0.0007075246    ,                 0.0 ,             0.0 ,             0.0 ,                 0.0 ,                 0.0 ,        0.0 ,1.0098403886879783     ,            0.0 ,            0.0 ,            0.0 ,              0.0 ,                   0.0 ,  0.0 ,0.0 , 588.1194651717138   ,1.0                ,0.0 ,-56.17437460908219  ,-117.2175775575766  ,3.757837924764228       ,-58.11224381703373  ,          0.0 ,          0.0 ,-55.94228712940164  ,-117.4496301404542  ,-58.11224381703373  ,-231.50421568495807 , 34.90413987727241   , 77.16806693577593  , 60.45575098780657   ,-51.17845833040605    ,-112.22163630892979 ,3.757837924764228       ,-53.116327538357595 ,          0.0 ,          0.0 ,-50.94636589992744   ,-112.45375354739379 ,-53.116327538357595 ,-216.51639708408268 , 34.90413987727241   , 72.17214071109488   , 60.45575098780657   ,-1.7487164336334473e-06 ,4.3765584567924496e-07  ,1.3200292917861875e-06  ,      0.0 ,      0.0 ,      0.0 ,6.214511469388656e-07   ,-1.932511882589469e-06  ,      0.0 ,-1.3110607356506037e-06 ,1.3318862817353163e-06 ,0.5056476066504553   ,0.04026535489762176     ,-2.467178253811785e-07  ,-6.47273438415351e-08   ,0.0                    ,2.553415261765333e-07  ,0.0 ,124.89612741892155    ,4.995918742317512       ,        0.0 ,        0.0 , 0.0
 0.0 ,0.0 ,           0.0 ,            0.0 ,            0.0 ,            0.0 ,              0.0 ,                   0.0 , 671.0 ,74.63012 ,-6.073531 ,           0.0 ,           0.0 ,       0.0 ,125.527        ,-18.62623   ,0.02099393       ,-0.0008258605    ,                 0.0 ,             0.0 ,             0.0 ,                 0.0 ,                 0.0 ,        0.0 ,1.4992292308302373     ,            0.0 ,            0.0 ,            0.0 ,              0.0 ,                   0.0 ,  0.0 ,0.0 , 589.0543820839969   ,1.0                ,0.0 ,-54.0538463207043   ,-115.5222953463647  ,3.1213151870514024      ,-57.03905929602213  ,          0.0 ,          0.0 ,-53.892815971251196 ,-115.68334050696154 ,-57.03905929602213  ,-226.61521110801    , 34.804861260282706  , 75.53840533567617  , 60.28378986222122   ,-49.0577912347631     ,-110.5262551286113  ,3.1213151870514024      ,-52.04300421008092  ,          0.0 ,          0.0 ,-48.8967558776023    ,-110.68730039789729 ,-52.04300421008092  ,-211.62704557576407 , 34.804861260282706  , 70.54234520579757   , 60.28378986222122   ,-3.3419675865207638e-06 ,7.611948079173324e-07   ,2.794249845155692e-06   ,      0.0 ,      0.0 ,      0.0 ,1.1991442986812591e-06  ,-3.7799170319096618e-06 ,      0.0 ,-2.5807732288346622e-06 ,2.5992848462609943e-06 ,0.27592889731572495  ,0.018399473681162876    ,-1.710371110252839e-07  ,-4.604347026051986e-08  ,2.0811587254109086e-07 ,57.90916305702846      ,0.0 ,69.08929873888067     ,2.5202902154512876      ,        0.0 ,        0.0 , 0.0
 0.0 ,0.0 ,           0.0 ,            0.0 ,            0.0 ,            0.0 ,              0.0 ,                   0.0 , 672.0 ,76.54009 ,-5.952192 ,           0.0 ,           0.0 ,       0.0 ,126.6774       ,-18.61993   ,0.01781051       ,-0.0007072757    ,                 0.0 ,             0.0 ,             0.0 ,                 0.0 ,                 0.0 ,        0.0 ,0.9930024911897024     ,            0.0 ,            0.0 ,            0.0 ,              0.0 ,                   0.0 ,  0.0 ,0.0 , 590.0065930806161   ,1.0                ,0.0 ,-51.95390942754442  ,-113.65131159502283 ,2.2750855496314264      ,-55.906340041024784 ,          0.0 ,          0.0 ,-51.86594466666513  ,-113.73925652573288 ,-55.906340041024784 ,-221.5115261434005  , 34.61810625000426   , 73.83717876111689  , 59.960322707353086  ,-46.95783498130237    ,-108.65519746852195 ,2.2750855496314264      ,-50.91026063475039  ,          0.0 ,          0.0 ,-46.86986525043052   ,-108.74319199955556 ,-50.91026063475039  ,-206.52331315454978 , 34.61810625000426   , 68.84110430491464   , 59.960322707353086  ,-1.5865977484972796e-06 ,3.5988309195049644e-07  ,1.5220499152482619e-06  ,      0.0 ,      0.0 ,      0.0 ,6.221256206019462e-07   ,-1.8488404265473123e-06 ,      0.0 ,-1.2267148059453661e-06 ,1.285233069145843e-06  ,0.5255438763189961   ,0.039502379668907406    ,-3.2027542813145035e-07 ,-1.3283979283858112e-07 ,0.0                    ,3.4674737351396446e-07 ,0.0 ,127.10613236816928    ,4.9960779492427925      ,        0.0 ,        0.0 , 0.0
 0.0 ,0.0 ,           0.0 ,            0.0 ,            0.0 ,            0.0 ,              0.0 ,                   0.0 , 673.0 ,78.44143 ,-5.814712 ,           0.0 ,           0.0 ,       0.0 ,127.9777       ,-18.61248   ,0.010825         ,-0.0005914783    ,                 0.0 ,             0.0 ,             0.0 ,                 0.0 ,                 0.0 ,        0.0 ,0.5064323574785757     ,            0.0 ,            0.0 ,            0.0 ,              0.0 ,                   0.0 ,  0.0 ,0.0 , 620.0843057109543   ,1.0                ,0.0 ,-50.13883968673588  ,-111.39082870167037 ,1.261832982914514       ,-54.668071438825514 ,          0.0 ,          0.0 ,-50.10943799931416  ,-111.4202549933413  ,-54.668071438825514 ,-216.19776433248703 , 34.16004395171383   , 72.06591479949434  , 59.16693320701625   ,-45.142637047250126   ,-106.39463563176342 ,1.261832982914514       ,-49.67187383066533  ,          0.0 ,          0.0 ,-45.11324039115398   ,-106.42405689210877 ,-49.67187383066533  ,-201.20915636954993 , 34.16004395171383   , 67.06971719133415   , 59.16693320701625   ,-1.590030852803256e-06  ,2.5045212847532833e-07  ,1.2667547253232772e-06  ,      0.0 ,      0.0 ,      0.0 ,4.484416777057676e-07   ,-1.7880205496591904e-06 ,      0.0 ,-1.3395786259109307e-06 ,1.1833808264136467e-06 ,0.28862528652798436  ,0.02058395547811276     ,-2.1926087436195262e-07 ,-9.609070972280461e-08  ,1.3377529959059334e-07 ,69.04523333295805      ,0.0 ,59.91659905799183     ,2.4822042286749886      ,        0.0 ,        0.0 , 0.0
 0.0 ,0.0 ,           0.0 ,            0.0 ,            0.0 ,            0.0 ,              0.0 ,                   0.0 , 674.0 ,80.34298 ,-5.635955 ,           0.0 ,           0.0 ,       0.0 ,129.6724       ,-18.6032    ,0.003809946      ,1.658125e-05     ,                 0.0 ,             0.0 ,             0.0 ,                 0.0 ,                 0.0 ,        0.0 ,2.519754116581237      ,            0.0 ,            0.0 ,            0.0 ,              0.0 ,                   0.0 ,  0.0 ,0.0 , 621.7906023028671   ,1.0                ,0.0 ,-48.49775721410959  ,-108.48998302672825 ,0.21164731252263966     ,-53.175252107831724 ,          0.0 ,          0.0 ,-48.49595011244452  ,-108.4917851139865  ,-53.175252107831724 ,-210.16295983857236 , 33.37104899080098   , 70.05431955452596  , 57.8003575232629    ,-43.50153851982154    ,-103.49372720301854 ,0.21164731252263966     ,-48.179033413543664 ,          0.0 ,          0.0 ,-43.49973643256328   ,-103.49552929027678 ,-48.179033413543664 ,-195.17433133783948 , 33.37104899080098   , 65.05810587464474   , 57.8003575232629    ,-2.1699287297914037e-06 ,5.53988485547525e-07    ,2.812448599242421e-06   ,      0.0 ,      0.0 ,      0.0 ,1.2248451408500066e-06  ,-2.8407853434277362e-06 ,      0.0 ,-1.615939945498949e-06  ,2.091875600601218e-06  ,0.2901656768716532   ,0.020831294870336185    ,-4.897495247419437e-07  ,-1.0991618638622813e-07 ,3.557248779105632e-07  ,69.98983709955822      ,0.0 ,59.61130864265005     ,2.490619396700897       ,        0.0 ,        0.0 , 0.0
 0.0 ,0.0 ,           0.0 ,            0.0 ,            0.0 ,            0.0 ,              0.0 ,                   0.0 , 675.0 ,82.26835 ,-5.340055 ,           0.0 ,           0.0 ,       0.0 ,132.5055       ,-18.5906    ,0.0009774938     ,-0.0004647863    ,                 0.0 ,             0.0 ,             0.0 ,                 0.0 ,                 0.0 ,        0.0 ,2.865954770714751      ,            0.0 ,            0.0 ,            0.0 ,              0.0 ,                   0.0 ,  0.0 ,0.0 , 623.9915593437105   ,1.0                ,0.0 ,-46.02568460118186  ,-102.71537479900213 ,-0.7586318941441814     ,-50.35202030775558  ,          0.0 ,          0.0 ,-46.01463364436529  ,-102.72642186995228 ,-50.35202030775558  ,-199.09310213994365 , 31.566121290054028  , 66.36436069826007  , 54.674126552245     ,-41.02923769608691    ,-97.71894452019471  ,-0.7586318941441814     ,-45.35556902772329  ,          0.0 ,          0.0 ,-41.018182364333015  ,-97.72999159114485  ,-45.35556902772329  ,-184.10371968546264 , 31.566121290054028  , 61.367908770583384  , 54.674126552245     ,-3.092781210510923e-06  ,5.896062494184444e-07   ,1.4277219876836517e-06  ,      0.0 ,      0.0 ,      0.0 ,7.814536685622227e-07   ,-3.2846286408010505e-06 ,      0.0 ,-2.503174978484441e-06  ,2.162551144315662e-06  ,0.2539807834280952   ,0.017425116469682356    ,-4.517644104333351e-07  ,-1.1079146570192421e-07 ,5.402072202909902e-07  ,79.75414697542404      ,0.0 ,53.74786422003047     ,2.1631329353987945      ,        0.0 ,        0.0 , 0.0
 0.0 ,0.0 ,           0.0 ,            0.0 ,            0.0 ,            0.0 ,              0.0 ,                   0.0 , 676.0 ,84.26437 ,-4.706713 ,           0.0 ,           0.0 ,       0.0 ,138.6378       ,-18.5705    ,-0.00929034      ,0.0001852805     ,                 0.0 ,             0.0 ,             0.0 ,                 0.0 ,                 0.0 ,        0.0 ,1.2854628140571287     ,            0.0 ,            0.0 ,            0.0 ,              0.0 ,                   0.0 ,  0.0 ,0.0 , 631.3738104437513   ,1.0                ,0.0 ,-41.00762037152708  ,-91.2403575383468   ,-1.441712744368997      ,-44.73230084225169  ,          0.0 ,          0.0 ,-40.96536485272925  ,-91.28258477642827  ,-44.73230084225169  ,-176.98025718322748 , 28.027921929998165  , 58.99341977507337  , 48.54578262349503   ,-36.0109068935124     ,-86.2436493468794   ,-1.441712744368997      ,-39.73559393651432  ,          0.0 ,          0.0 ,-35.968657946991875  ,-86.28587472613627  ,-39.73559393651432  ,-161.99013417772335 , 28.027921929998165  , 53.99671158360595   , 48.54578262349503   ,-2.0041562715138916e-06 ,5.082048587725068e-07   ,1.5370977819895153e-06  ,      0.0 ,      0.0 ,      0.0 ,7.623710717645442e-07   ,-2.2583229044220004e-06 ,      0.0 ,-1.4959512927577295e-06 ,1.5723432976500377e-06 ,0.11760679586735226  ,0.006400787740693147    ,-6.079731983959057e-07  ,-8.416261430108717e-08  ,8.249643101783298e-07  ,112.44731944434268     ,0.0 ,26.971805013121955    ,0.9288609668269282      ,        0.0 ,        0.0 , 0.0
 0.0 ,0.0 ,           0.0 ,            0.0 ,            0.0 ,            0.0 ,              0.0 ,                   0.0 , 677.0 ,86.23788 ,-4.861862 ,           0.0 ,           0.0 ,       0.0 ,136.8625       ,-18.54812   ,-0.005428619     ,-0.001728644     ,                 0.0 ,             0.0 ,             0.0 ,                 0.0 ,                 0.0 ,        0.0 ,0.9405709968028131     ,            0.0 ,            0.0 ,            0.0 ,              0.0 ,                   0.0 ,  0.0 ,0.0 , 633.760072191884    ,1.0                ,0.0 ,-43.119704241043024 ,-94.22169277502508  ,-2.015646948954788      ,-46.295919064179486 ,          0.0 ,          0.0 ,-43.03511541367587  ,-94.30627201503754  ,-46.295919064179486 ,-183.63731534972402 , 28.707444712984394  , 61.212434553567775 , 49.722753896392135  ,-38.12307370730491    ,-89.22507685331958  ,-2.015646948954788      ,-41.29929387299757  ,          0.0 ,          0.0 ,-38.03849022249395   ,-89.30962750896802  ,-41.29929387299757  ,-168.6474157130245  , 28.707444712984394  , 56.21580931697467   , 49.722753896392135  ,-8.619526656603154e-07  ,2.7172410331686916e-07  ,1.2975571258064318e-06  ,      0.0 ,      0.0 ,      0.0 ,5.750736850250344e-07   ,-1.1653022500931516e-06 ,      0.0 ,-5.902284906653419e-07  ,8.881068513013022e-07  ,0.37720319298055904  ,0.027263960168615573    ,-9.989906983773725e-07  ,-5.977318383750773e-07  ,2.934900943347017e-07  ,30.01419505635894      ,0.0 ,106.89453805249788    ,3.8104881229752716      ,        0.0 ,        0.0 , 0.0
 0.0 ,0.0 ,           0.0 ,            0.0 ,            0.0 ,            0.0 ,              0.0 ,                   0.0 , 678.0 ,88.12295 ,-4.578969 ,           0.0 ,           0.0 ,       0.0 ,139.3472       ,-18.51369   ,0.003026005      ,-0.0003524282    ,                 0.0 ,             0.0 ,             0.0 ,                 0.0 ,                 0.0 ,        0.0 ,0.04570436021730806    ,            0.0 ,            0.0 ,            0.0 ,              0.0 ,                   0.0 ,  0.0 ,0.0 , 624.3888083914267   ,1.0                ,0.0 ,-40.98842923916731  ,-88.60542725069102  ,-2.079856264323475      ,-43.60054632739819  ,          0.0 ,          0.0 ,-40.89654781180714  ,-88.6973091350948   ,-43.60054632739819  ,-173.19437892850289 , 26.852649180136822  , 57.73146768889558  , 46.51015403350293   ,-35.99165804362194    ,-83.60866173025684  ,-2.079856264323475      ,-38.60377966435501  ,          0.0 ,          0.0 ,-35.89978114876396   ,-83.70053656841863  ,-38.60377966435501  ,-158.20408305664876 , 26.852649180136822  , 52.7347012543742    , 46.51015403350293   ,-2.982092958060797e-08  ,1.1920711781470768e-08  ,6.59785173313645e-08    ,      0.0 ,      0.0 ,      0.0 ,3.008683754835227e-08   ,-4.79870416361814e-08   ,      0.0 ,-1.7900220084355213e-08 ,3.937745992806589e-08  ,0.48020773592457466  ,0.035923553247229706    ,-9.736431123851562e-07  ,-7.084795621097429e-07  ,0.0                    ,1.2058974724624932e-06 ,0.0 ,139.31678430857716    ,4.996767473953218       ,        0.0 ,        0.0 , 0.0
 0.0 ,0.0 ,           0.0 ,            0.0 ,            0.0 ,            0.0 ,              0.0 ,                   0.0 , 679.0 ,91.73171 ,-4.393479 ,           0.0 ,           0.0 ,       0.0 ,140.094        ,-18.40287   ,-0.01896082      ,-0.00256118      ,                 0.0 ,             0.0 ,             0.0 ,                 0.0 ,                 0.0 ,        0.0 ,2.679203089539451      ,            0.0 ,            0.0 ,            0.0 ,              0.0 ,                   0.0 ,  0.0 ,0.0 , 614.1521351255625   ,1.0                ,0.0 ,-41.32826243077584  ,-84.16821229664961  ,-1.867372833336372      ,-41.923624924936306 ,          0.0 ,          0.0 ,-41.24649687261519  ,-84.24997785481028  ,-41.923624924936306 ,-167.42006864338987 , 24.63596422440154   , 55.80669913486824  , 42.67074384264369   ,-36.33144454544683    ,-79.17139441132062  ,-1.867372833336372      ,-36.92680703960728  ,          0.0 ,          0.0 ,-36.24967898728619   ,-79.25315996948126  ,-36.92680703960728  ,-152.42966571780164 , 24.63596422440154   , 50.80988124953923   , 42.67074384264369   ,-9.210304521802727e-07  ,-1.4108622389464632e-07 ,1.2526208147860987e-06  ,      0.0 ,      0.0 ,      0.0 ,1.3706283764117144e-06  ,-2.4327450945921352e-06 ,      0.0 ,-1.06211648004167e-06   ,2.01487320747199e-06   ,0.43912032206251395  ,0.03562350938971714     ,-2.3900064693702725e-06 ,-1.666238702667771e-06  ,0.0                    ,2.916849868386595e-06  ,0.0 ,140.6981351250834     ,4.996816705096795       ,        0.0 ,        0.0 , 0.0
 0.0 ,0.0 ,           0.0 ,            0.0 ,            0.0 ,            0.0 ,              0.0 ,                   0.0 , 680.0 ,93.39495 ,-3.933062 ,           0.0 ,           0.0 ,       0.0 ,143.7299       ,-18.30605   ,-0.001497669     ,0.003269909      ,                 0.0 ,             0.0 ,             0.0 ,                 0.0 ,                 0.0 ,        0.0 ,3.2025993562968083     ,            0.0 ,            0.0 ,            0.0 ,              0.0 ,                   0.0 ,  0.0 ,0.0 , 631.9662893956472   ,1.0                ,0.0 ,-37.55445353258387  ,-75.366260339406    ,-1.8035082055037979     ,-37.668496533875526 ,          0.0 ,          0.0 ,-37.46829545470101  ,-75.45241841728885  ,-37.668496533875526 ,-150.58919737488648 , 21.873020051661147  , 50.196404146392844 , 37.88518162590759   ,-32.55753270119509    ,-70.36934050568296  ,-1.8035082055037979     ,-32.6715767001525   ,          0.0 ,          0.0 ,-32.47137562097797   ,-70.45549858356583  ,-32.6715767001525   ,-135.5984319403437  , 21.873020051661147  , 45.19947829601324   , 37.88518162590759   ,1.0071393946640112e-07  ,-9.176850180542914e-07  ,1.4693910637748193e-06  ,      0.0 ,      0.0 ,      0.0 ,1.6099430771367187e-06  ,-2.4269147046286763e-06 ,      0.0 ,-8.169711287777985e-07  ,2.2164042299532395e-06 ,0.371653132561503    ,0.03134076269797812     ,-2.7189349903031052e-06 ,-1.4522927239657226e-06 ,4.1127164394547917e-07 ,13.665768957933864     ,0.0 ,130.06137672424381    ,4.4984203912223535      ,        0.0 ,        0.0 , 0.0
 0.0 ,0.0 ,           0.0 ,            0.0 ,            0.0 ,            0.0 ,              0.0 ,                   0.0 , 681.0 ,95.34041 ,-3.026009 ,           0.0 ,           0.0 ,       0.0 ,150.9218       ,-18.11819   ,-0.004122106     ,0.0008252398     ,                 0.0 ,             0.0 ,             0.0 ,                 0.0 ,                 0.0 ,        0.0 ,1.6543184203204144     ,            0.0 ,            0.0 ,            0.0 ,              0.0 ,                   0.0 ,  0.0 ,0.0 , 550.8022475003002   ,1.0                ,0.0 ,-29.872725139567937 ,-59.05230729973904  ,-1.2782975648338417     ,-29.613854391430028 ,          0.0 ,          0.0 ,-29.81454568959788  ,-59.110486749709096 ,-29.613854391430028 ,-118.53887308758203 , 16.972401865287722  , 39.512964374219465 , 29.397064775609298  ,-24.87552178512667    ,-54.055108526349436 ,-1.2782975648338417     ,-24.61665561804041  ,          0.0 ,          0.0 ,-24.817346916208272  ,-54.113287976319484 ,-24.61665561804041  ,-103.54728134846486 , 16.972401865287722  , 34.515761019778196  , 29.397064775609298  ,-1.2783231855538277e-06 ,-2.7370052429863175e-07 ,1.4048843969272367e-07  ,      0.0 ,      0.0 ,      0.0 ,-2.2817142923923922e-07 ,-1.3238523176940064e-06 ,      0.0 ,-1.552024006498749e-06  ,7.23953345004589e-07   ,0.033333666134988144 ,-3.7914008538285624e-06 ,-1.8903441581373288e-06 ,0.0                     ,4.292616897026203e-06  ,151.0378301672522      ,0.0 ,0.0                   ,0.0                     ,        0.0 ,        0.0 , 0.0
 0.0 ,0.0 ,           0.0 ,            0.0 ,            0.0 ,            0.0 ,              0.0 ,                   0.0 , 682.0 ,97.57465 ,-2.931838 ,           0.0 ,           0.0 ,       0.0 ,149.1243       ,-17.84426   ,-0.003031372     ,-0.001271155     ,                 0.0 ,             0.0 ,             0.0 ,                 0.0 ,                 0.0 ,        0.0 ,3.4419590279918877     ,            0.0 ,            0.0 ,            0.0 ,              0.0 ,                   0.0 ,  0.0 ,0.0 , 550.3481424178866   ,0.9999999999999999 ,0.0 ,-29.206600590258414 ,-57.28709183546196  ,-0.7858185162782876     ,-28.806784012850205 ,          0.0 ,          0.0 ,-29.18339451693377  ,-57.310297908786595 ,-28.806784012850205 ,-115.3004515619787  , 16.348976834316414  , 38.43349058266702  , 28.317257935618674  ,-24.209479219514677   ,-52.289975511223794 ,-0.7858185162782876     ,-23.80966768861206  ,          0.0 ,          0.0 ,-24.18627332415808   ,-52.313181584548445 ,-23.80966768861206  ,-100.30911737284494 , 16.348976834316414  , 33.43637408046083   , 28.317257935618674  ,1.473461495308874e-06   ,-1.8481807364682067e-06 ,1.3342286383304445e-06  ,      0.0 ,      0.0 ,      0.0 ,2.74068814295714e-06    ,-3.1154074336514166e-06 ,      0.0 ,-3.747196374388854e-07  ,3.2055028886333794e-06 ,0.03381285580083746  ,-5.558242378161616e-06  ,-2.715198777243324e-06  ,0.0                     ,6.215195176899912e-06  ,148.96741246135423     ,0.0 ,0.0                   ,0.0                     ,        0.0 ,        0.0 , 0.0
 0.0 ,0.0 ,           0.0 ,            0.0 ,            0.0 ,            0.0 ,              0.0 ,                   0.0 , 683.0 ,99.64055 ,-2.853103 ,           0.0 ,           0.0 ,       0.0 ,146.1183       ,-17.46493   ,-0.003891803     ,6.008461e-05     ,                 0.0 ,             0.0 ,             0.0 ,                 0.0 ,                 0.0 ,        0.0 ,3.0                    ,            0.0 ,            0.0 ,            0.0 ,              0.0 ,                   0.0 ,  0.0 ,0.0 , 781.4334256476616   ,1.0                ,0.0 ,-28.817108493652334 ,-55.82192246221396  ,-0.5589916842387406     ,-28.136187124675686 ,          0.0 ,          0.0 ,-28.803973543459776 ,-55.835059782795724 ,-28.136187124675686 ,-112.77519945480071 , 15.808178235755289  , 37.59173901779379  , 27.380564384011382  ,-23.82015255937671    ,-50.82497198559874  ,-0.5589916842387406     ,-23.1392346500056   ,          0.0 ,          0.0 ,-23.80701554907356   ,-50.838108995901884 ,-23.1392346500056   ,-97.7843557353755   , 15.808178235755289  , 32.594786481067985  , 27.380564384011382  ,7.076675822359119e-06   ,-2.836751042577434e-06  ,2.0263513193460273e-06  ,      0.0 ,      0.0 ,      0.0 ,7.214210571583886e-06   ,-2.9742857918022e-06    ,      0.0 ,4.239924779781686e-06   ,5.248836431321163e-06  ,0.09991598572836764  ,0.006544327968942584    ,-3.830669648779488e-06  ,-9.34587352057381e-07   ,5.879810064171775e-06  ,121.88713352744787     ,0.0 ,23.358261918124676    ,0.8743028411479502      ,        0.0 ,        0.0 , 0.0
 0.0 ,0.0 ,           0.0 ,            0.0 ,            0.0 ,            0.0 ,              0.0 ,                   0.0 , 684.0 ,101.6375 ,-2.783743 ,           0.0 ,           0.0 ,       0.0 ,141.5583       ,-16.93957   ,-0.002420383     ,-0.0002109642    ,                 0.0 ,             0.0 ,             0.0 ,                 0.0 ,                 0.0 ,        0.0 ,2.0079707748898796     ,            0.0 ,            0.0 ,            0.0 ,              0.0 ,                   0.0 ,  0.0 ,0.0 , 554.4212099105392   ,0.9999999999999999 ,0.0 ,-28.56931487364897  ,-54.8914152279771   ,-0.16555252689892028    ,-27.69894899547129  ,          0.0 ,          0.0 ,-28.567794581553752 ,-54.892940508790524 ,-27.69894899547129  ,-111.1596990233981  , 15.45770580749612   , 37.05323299401404  , 26.773531282051902  ,-23.57269761008408    ,-49.89479797080416  ,-0.16555252689892028    ,-22.7023267572505   ,          0.0 ,          0.0 ,-23.57117233566261   ,-49.89632324522563  ,-22.7023267572505   ,-96.16982731279465  , 15.45770580749612   , 32.05660579436873   , 26.773531282051902  ,4.272647978611925e-06   ,-2.016123149756963e-06  ,1.890638813183778e-06   ,      0.0 ,      0.0 ,      0.0 ,4.4368431311671114e-06  ,-2.180318203109227e-06  ,      0.0 ,2.2565250768622683e-06  ,3.3725587515889446e-06 ,0.34435452850047626  ,0.03655824632208651     ,-1.707009471078735e-05  ,-6.07519315874876e-06   ,3.473163655310817e-08  ,1.0712483770742378     ,0.0 ,134.97425379080568    ,4.96467517128307        ,        0.0 ,        0.0 , 0.0
 0.0 ,0.0 ,           0.0 ,            0.0 ,            0.0 ,            0.0 ,              0.0 ,                   0.0 , 685.0 ,103.6055 ,-2.716846 ,           0.0 ,           0.0 ,       0.0 ,135.066        ,-16.22345   ,-0.00158283      ,-1.825746e-05    ,                 0.0 ,             0.0 ,             0.0 ,                 0.0 ,                 0.0 ,        0.0 ,2.235445645877652      ,            0.0 ,            0.0 ,            0.0 ,              0.0 ,                   0.0 ,  0.0 ,0.0 , 537.0480077864117   ,1.0                ,0.0 ,-28.01542921887981  ,-53.71843439172697  ,0.04427211684531802     ,-27.115688232487987 ,          0.0 ,          0.0 ,-28.015088139362476 ,-53.71880015753557  ,-27.115688232487987 ,-108.8495766503452  , 15.10862833360045   , 36.28318978671287  , 26.168909238337488  ,-23.01928141117994    ,-48.7223038591526   ,0.04427211684531802     ,-22.119535481497426 ,          0.0 ,          0.0 ,-23.018935388371915  ,-48.72264000291979  ,-22.119535481497426 ,-93.86111827641435  , 15.10862833360045   , 31.287034446888065  , 26.168909238337488  ,5.644108652087455e-06   ,-2.3929180422600637e-06 ,2.01765843380266e-06    ,      0.0 ,      0.0 ,      0.0 ,6.0562486858526e-06     ,-2.805058024248524e-06  ,      0.0 ,3.251190739269103e-06   ,4.529170722806985e-06  ,0.10251099272399701  ,0.009340878747316265    ,-1.7795388283972782e-05 ,-1.7837067880643402e-06 ,2.2331897311596696e-05 ,96.47237002147612      ,0.0 ,35.778724664389564    ,1.2935708276968823      ,        0.0 ,        0.0 , 0.0
 0.0 ,0.0 ,           0.0 ,            0.0 ,            0.0 ,            0.0 ,              0.0 ,                   0.0 , 686.0 ,105.5614 ,-2.650915 ,           0.0 ,           0.0 ,       0.0 ,126.282        ,-15.27911   ,-0.001076109     ,5.123986e-05     ,                 0.0 ,             0.0 ,             0.0 ,                 0.0 ,                 0.0 ,        0.0 ,1.2654546829260536     ,            0.0 ,            0.0 ,            0.0 ,              0.0 ,                   0.0 ,  0.0 ,0.0 , 536.5520413596387   ,1.0                ,0.0 ,-27.509797001485502 ,-52.59221461843467  ,0.13316274850118678     ,-26.54933687114721  ,          0.0 ,          0.0 ,-27.50856627170974  ,-52.59342073820848  ,-26.54933687114721  ,-106.65132634742955 , 14.770192903158353  , 35.55044289308337  , 25.5827264778916    ,-22.51426893998437    ,-47.596684090569426 ,0.13316274850118678     ,-21.55380624919061  ,          0.0 ,          0.0 ,-22.51304062293355   ,-47.597917286709304 ,-21.55380624919061  ,-91.66476169246934  , 14.770192903158353  , 30.554917244307184  , 25.5827264778916    ,3.7994434486600916e-06  ,-1.597117406652622e-06  ,1.0205303953587672e-06  ,      0.0 ,      0.0 ,      0.0 ,3.893147501369676e-06   ,-1.6908219566802477e-06 ,      0.0 ,2.20232604200747e-06    ,2.863678936495173e-06  ,0.04203437470361419  ,-4.189716260871267e-05  ,-1.6264396688234943e-05 ,0.0                     ,4.5977126799832865e-05 ,120.46122469601872     ,0.0 ,0.0                   ,0.0                     ,        0.0 ,        0.0 , 0.0
 0.0 ,0.0 ,           0.0 ,            0.0 ,            0.0 ,            0.0 ,              0.0 ,                   0.0 , 687.0 ,107.5128 ,-2.585185 ,           0.0 ,           0.0 ,       0.0 ,115.0669       ,-14.09187   ,-0.0005712018    ,9.098923e-05     ,                 0.0 ,             0.0 ,             0.0 ,                 0.0 ,                 0.0 ,        0.0 ,1.5134834308841287     ,            0.0 ,            0.0 ,            0.0 ,              0.0 ,                   0.0 ,  0.0 ,0.0 , 535.9420703186905   ,1.0                ,0.0 ,-27.02761486907035  ,-51.455171208726746 ,0.19756208505604894     ,-26.001398700160966 ,          0.0 ,          0.0 ,-27.02574060732403  ,-51.457037881373616 ,-26.001398700160966 ,-104.48418986942777 , 14.413286686824474  , 34.82805991473816  , 24.964546938512523  ,-22.033149284404924   ,-46.460705686667964 ,0.19756208505604894     ,-21.006930641988347 ,          0.0 ,          0.0 ,-22.031277539530386  ,-46.462582421921475 ,-21.006930641988347 ,-89.50079060344021  , 14.413286686824474  , 29.833596846944516  , 24.964546938512523  ,4.3524803740073887e-07  ,-4.1918935984371553e-07 ,9.276448944308947e-07   ,      0.0 ,      0.0 ,      0.0 ,1.7594134705935643e-06  ,-1.7433553935189919e-06 ,      0.0 ,1.6058626834746832e-08  ,1.842075758032045e-06  ,0.20574943843768984  ,0.024840973436348966    ,-5.6107960130341995e-05 ,-3.967026701905001e-05  ,3.070150513237047e-05  ,56.98839595909946      ,0.0 ,51.348444213627104    ,2.501664230436768       ,        0.0 ,        0.0 , 0.0
 0.0 ,0.0 ,           0.0 ,            0.0 ,            0.0 ,            0.0 ,              0.0 ,                   0.0 , 688.0 ,109.4637 ,-2.519034 ,           0.0 ,           0.0 ,       0.0 ,101.6753       ,-12.68657   ,-0.0001732692    ,0.0001012754     ,                 0.0 ,             0.0 ,             0.0 ,                 0.0 ,                 0.0 ,        0.0 ,0.7510711145878941     ,            0.0 ,            0.0 ,            0.0 ,              0.0 ,                   0.0 ,  0.0 ,0.0 , 535.4449124080563   ,1.0                ,0.0 ,-26.28479780160059  ,-50.301841068396534 ,0.2319220717616055      ,-25.38104362992628  ,          0.0 ,          0.0 ,-26.282286976278954 ,-50.30435940659925  ,-25.38104362992628  ,-101.96769508575109 , 14.139816073508838  , 33.9892299556371   , 24.490877731942877  ,-21.29303038351977    ,-45.310066137434646 ,0.2319220717616055      ,-20.389268748318756 ,          0.0 ,          0.0 ,-21.290512045317058  ,-45.31258447563735  ,-20.389268748318756 ,-86.99236526927318  , 14.139816073508838  , 28.997455074029574  , 24.490877731942877  ,3.5645422975287607e-06  ,-1.3450060226935451e-06 ,1.9273527066018242e-06  ,      0.0 ,      0.0 ,      0.0 ,4.04005742394259e-06    ,-1.8205214994157087e-06 ,      0.0 ,2.219535422167659e-06   ,2.9996364225706074e-06 ,0.31893250193292616  ,0.0547554320451973      ,-0.0001472952635127731  ,-8.308900337214737e-05  ,0.0                    ,0.00017067577450332157 ,0.0 ,98.3946070402444      ,4.991773145342718       ,        0.0 ,        0.0 , 0.0
 0.0 ,0.0 ,           0.0 ,            0.0 ,            0.0 ,            0.0 ,              0.0 ,                   0.0 , 689.0 ,111.4165 ,-2.451053 ,           0.0 ,           0.0 ,       0.0 ,86.82958       ,-11.13401   ,0.0002689072     ,1.522487e-05     ,                 0.0 ,             0.0 ,             0.0 ,                 0.0 ,                 0.0 ,        0.0 ,1.992471458051469      ,            0.0 ,            0.0 ,            0.0 ,              0.0 ,                   0.0 ,  0.0 ,0.0 , 534.9558092797424   ,1.0                ,0.0 ,-25.569002825455854 ,-49.03776244068153  ,0.2555295540006064      ,-24.757473764578123 ,          0.0 ,          0.0 ,-25.564940743415967 ,-49.04181948856773  ,-24.757473764578123 ,-99.36423146066365  , 13.795500864065593  , 33.121412987469384 , 23.89451003683094   ,-20.57971925032468    ,-44.04847886555036  ,0.2555295540006064      ,-19.768187759498815 ,          0.0 ,          0.0 ,-20.575662202438473  ,-44.05253844933475  ,-19.768187759498815 ,-84.39638837362932  , 13.795500864065593  , 28.13212948064556   , 23.89451003683094   ,5.852858548454126e-06   ,-2.73114745232252e-06   ,3.888404933908981e-06   ,      0.0 ,      0.0 ,      0.0 ,7.297946876868879e-06   ,-4.176236571547845e-06  ,      0.0 ,3.121709608875963e-06   ,5.833782734378249e-06  ,0.2199982166904903   ,0.043913349081834266    ,-0.0002210985788456298  ,-3.501556269558382e-05  ,0.00011767475461108788 ,16.173234935102077     ,0.0 ,66.22156583454307     ,3.7252126048197494      ,        0.0 ,        0.0 , 0.0
 0.0 ,0.0 ,           0.0 ,            0.0 ,            0.0 ,            0.0 ,              0.0 ,                   0.0 , 690.0 ,113.3708 ,-2.377013 ,           0.0 ,           0.0 ,       0.0 ,71.57207       ,-9.534221   ,0.0006658849     ,0.0002329434     ,                 0.0 ,             0.0 ,             0.0 ,                 0.0 ,                 0.0 ,        0.0 ,2.9948237926831824     ,            0.0 ,            0.0 ,            0.0 ,              0.0 ,                   0.0 ,  0.0 ,0.0 , 534.4904907112343   ,1.0                ,0.0 ,-24.83665322928899  ,-47.714987370651805 ,0.26990800996086733     ,-24.097185023041863 ,          0.0 ,          0.0 ,-24.831159621796118 ,-47.72047600402571  ,-24.097185023041863 ,-96.64883077895038  , 13.435774965792374  , 32.216274393795125 , 23.271443345579975  ,-19.850726207874587   ,-42.7290603883997   ,0.26990800996086733     ,-19.11125550826809  ,          0.0 ,          0.0 ,-19.84524010702235   ,-42.73454648925194  ,-19.11125550826809  ,-81.69103694857468  , 13.435774965792374  , 27.230349853140314  , 23.271443345579975  ,6.394484589933946e-06   ,-4.01236724959306e-06   ,5.317883892765798e-06   ,      0.0 ,      0.0 ,      0.0 ,9.21551262385997e-06    ,-6.8333964079609105e-06 ,      0.0 ,2.3821163323063375e-06  ,8.081224714080459e-06  ,0.21774741428763741  ,0.05394945694927436     ,-0.0003477095328299005  ,-7.0950106787169e-05    ,7.512094933195651e-05  ,15.550629923653037     ,0.0 ,52.241494921019765    ,3.7238418227741366      ,        0.0 ,        0.0 , 0.0
 0.0 ,0.0 ,           0.0 ,            0.0 ,            0.0 ,            0.0 ,              0.0 ,                   0.0 , 691.0 ,115.316  ,-2.285027 ,           0.0 ,           0.0 ,       0.0 ,56.97706       ,-7.982733   ,0.00234319       ,0.0001657795     ,                 0.0 ,             0.0 ,             0.0 ,                 0.0 ,                 0.0 ,        0.0 ,2.0                    ,            0.0 ,            0.0 ,            0.0 ,              0.0 ,                   0.0 ,  0.0 ,0.0 , 548.9691412448567   ,1.0                ,0.0 ,-24.092568286686536 ,-46.8621549934167   ,0.5600962534532122      ,-23.569738107313302 ,          0.0 ,          0.0 ,-24.077809771533396 ,-46.876913508569835 ,-23.569738107313302 ,-94.52446699687584  , 13.313056197105839  , 31.508152286847587 , 23.058892026153003  ,-19.1060300508815     ,-41.87561667742766  ,0.5600962534532122      ,-18.583194831416257 ,          0.0 ,          0.0 ,-19.091276495636357  ,-41.89037497606369  ,-18.583194831416257 ,-79.56485966722056  , 13.313056197105839  , 26.52161375434143   , 23.058892026153003  ,1.2376502131252505e-05  ,-7.101764622348324e-06  ,-2.9249752067020133e-06 ,      0.0 ,      0.0 ,      0.0 ,1.254244948841895e-05   ,-7.2677130420664095e-06 ,      0.0 ,5.274735999280071e-06   ,1.0029423518598753e-05 ,0.3150148404715257   ,0.07061128255170686     ,-0.00029383048837861595 ,-0.000243134588643027   ,6.422440795618607e-06  ,1.3298510245129207     ,0.0 ,69.44640187836038     ,4.87863838033247        ,        0.0 ,        0.0 , 0.0
 0.0 ,0.0 ,           0.0 ,            0.0 ,            0.0 ,            0.0 ,              0.0 ,                   0.0 , 692.0 ,117.2047 ,-2.149946 ,           0.0 ,           0.0 ,       0.0 ,43.71326       ,-6.521272   ,-0.001188897     ,0.002903052      ,                 0.0 ,             0.0 ,             0.0 ,                 0.0 ,                 0.0 ,        0.0 ,1.1604526402927604     ,            0.0 ,            0.0 ,            0.0 ,              0.0 ,                   0.0 ,  0.0 ,0.0 , 550.1552557248668   ,1.0                ,0.0 ,-22.545709939487566 ,-43.93065049574696  ,0.47093838149889855     ,-22.078156018028853 ,          0.0 ,          0.0 ,-22.53193602090792  ,-43.944420216589805 ,-22.078156018028853 ,-88.55451769638984  , 12.495747068307853  , 29.51816881775446  , 21.643273169975128  ,-17.5787067016374     ,-38.96365269876006  ,0.47093838149889855     ,-17.111156522001814 ,          0.0 ,          0.0 ,-17.56493822392102   ,-38.9774224196029   ,-17.111156522001814 ,-73.65352135081878  , 12.495747068307853  , 24.551171020767555  , 21.643273169975128  ,6.92740479561123e-06    ,-3.7937563606025683e-06 ,-2.054929904967861e-06  ,      0.0 ,      0.0 ,      0.0 ,7.028952328303475e-06   ,-3.8953016550633525e-06 ,      0.0 ,3.1336503416390935e-06  ,5.538556564203999e-06  ,0.23131882088809796  ,0.07447453416948287     ,-0.001124961099489794   ,-0.000826747149690849   ,0.00017124728526105989 ,31.003078242541346     ,0.0 ,20.915783161929703    ,2.6935674853074767      ,        0.0 ,        0.0 , 0.0
 0.0 ,0.0 ,           0.0 ,            0.0 ,            0.0 ,            0.0 ,              0.0 ,                   0.0 , 693.0 ,118.8624 ,-1.958975 ,           0.0 ,           0.0 ,       0.0 ,33.43925       ,-5.3029     ,-0.005139918     ,-0.001081529     ,                 0.0 ,             0.0 ,             0.0 ,                 0.0 ,                 0.0 ,        0.0 ,0.7975356224768886     ,            0.0 ,            0.0 ,            0.0 ,              0.0 ,                   0.0 ,  0.0 ,0.0 , 790.7138762449825   ,1.0                ,0.0 ,-20.91080226982091  ,-40.50654601543349  ,0.4888833364506146      ,-20.370020992816116 ,          0.0 ,          0.0 ,-20.86245118409186  ,-40.55489031030714  ,-20.370020992816116 ,-81.78736792693314  , 11.520628100619282  , 27.262454103005073 , 19.954315454078383  ,-15.970247859256842   ,-35.56599858881705  ,0.4888833364506146      ,-15.429473481978413 ,          0.0 ,          0.0 ,-15.921903628062317  ,-35.614342771224806 ,-15.429473481978413 ,-66.96571998243402  , 11.520628100619282  , 22.32190674212263   , 19.954315454078383  ,4.4738996551568525e-06  ,-1.3718531980505782e-06 ,6.406230756639294e-07   ,      0.0 ,      0.0 ,      0.0 ,4.494288875927328e-06   ,-1.3922411334176794e-06 ,      0.0 ,3.102046053974616e-06   ,3.076809881503685e-06  ,0.28327314723005675  ,0.1529761079326444      ,-0.0022515058948857675  ,-0.0014546795190073874  ,0.0                    ,0.0027140509165549456  ,0.0 ,32.75094643547783     ,4.940548741546705       ,        0.0 ,        0.0 , 0.0
 0.0 ,0.0 ,           0.0 ,            0.0 ,            0.0 ,            0.0 ,              0.0 ,                   0.0 , 694.0 ,93.77916 ,-2.143782 ,           0.0 ,           0.0 ,       0.0 ,160.7281       ,-18.21659   ,-0.006603214     ,-0.0009622299    ,                 0.0 ,             0.0 ,             0.0 ,                 0.0 ,                 0.0 ,        0.0 ,2.554916444330881      ,            0.0 ,            0.0 ,            0.0 ,              0.0 ,                   0.0 ,  0.0 ,0.0 , 778.7344776569574   ,1.0                ,0.0 ,-21.407850619929306 ,-43.06519858871185  ,-1.1210673520602334     ,-21.538113206232314 ,          0.0 ,          0.0 ,-21.34320664476872  ,-43.12984320558247  ,-21.538113206232314 ,-86.01115146052965  , 12.524015042565846  , 28.670390537578644 , 21.692234405995627  ,-16.410275474058125   ,-38.06762424497822  ,-1.1210673520602334     ,-16.540538028275634 ,          0.0 ,          0.0 ,-16.345631482854788  ,-38.132268220138805 ,-16.540538028275634 ,-71.0184320615843   , 12.524015042565846  , 23.672809673894285  , 21.692234405995627  ,-1.869972110689622e-06  ,-2.1837970480386583e-07 ,1.708804474725644e-07   ,      0.0 ,      0.0 ,      0.0 ,-1.4568403531475833e-07 ,-1.9426679517131246e-06 ,      0.0 ,-2.0883518726716193e-06 ,1.0989130037410924e-06 ,0.22682126691991827  ,0.018458684830307825    ,-1.9043826861732604e-06 ,-7.325067589496988e-07  ,1.4481328012228582e-06 ,72.73768037066526      ,0.0 ,88.50545838178006     ,2.8574165262670954      ,        0.0 ,        0.0 , 0.0
 0.0 ,0.0 ,           0.0 ,            0.0 ,            0.0 ,            0.0 ,              0.0 ,                   0.0 , 695.0 ,92.11219 ,-2.538432 ,           0.0 ,           0.0 ,       0.0 ,157.9745       ,-18.33588   ,0.0003251283     ,0.000578435      ,                 0.0 ,             0.0 ,             0.0 ,                 0.0 ,                 0.0 ,        0.0 ,2.7604439805440877     ,            0.0 ,            0.0 ,            0.0 ,              0.0 ,                   0.0 ,  0.0 ,0.0 , 912.0157863669956   ,1.0                ,0.0 ,-25.009115739238826 ,-50.97551593312913  ,-1.0862700766216966     ,-25.39188560122072  ,          0.0 ,          0.0 ,-24.955434984424212 ,-51.029197927499766 ,-25.39188560122072  ,-101.37649063156007 , 14.930380431378746  , 33.79217294129109  , 25.860184011984163  ,-20.0116346231061     ,-45.978036363922655 ,-1.0862700766216966     ,-20.394404421934766 ,          0.0 ,          0.0 ,-19.957953834196093  ,-46.03171712209565  ,-20.394404421934766 ,-86.38408925418639  , 14.930380431378746  , 28.79469182280751   , 25.860184011984163  ,-2.1273294149074905e-06 ,8.142222105938312e-08   ,-2.6193491994444943e-07 ,      0.0 ,      0.0 ,      0.0 ,8.922409260276836e-08   ,-2.135131286786713e-06  ,      0.0 ,-2.045906986059174e-06  ,1.2593095909502067e-06 ,0.2904403680696864   ,0.02307520024806619     ,-1.3046593339009152e-06 ,-7.587729399190212e-07  ,4.4776003521549916e-07 ,55.149196757503596     ,0.0 ,103.908660225925      ,3.4612263037140214      ,        0.0 ,        0.0 , 0.0
 0.0 ,0.0 ,           0.0 ,            0.0 ,            0.0 ,            0.0 ,              0.0 ,                   0.0 , 696.0 ,90.05559 ,-3.299024 ,           0.0 ,           0.0 ,       0.0 ,151.4216       ,-18.44118   ,-0.01435941      ,-0.0007067642    ,                 0.0 ,             0.0 ,             0.0 ,                 0.0 ,                 0.0 ,        0.0 ,3.623234706301181      ,            0.0 ,            0.0 ,            0.0 ,              0.0 ,                   0.0 ,  0.0 ,0.0 , 712.3765002768104   ,0.9999999999999999 ,0.0 ,-31.017125885521864 ,-65.09149977407183  ,-1.3908239721152953     ,-32.24495956876104  ,          0.0 ,          0.0 ,-30.956849735368966 ,-65.151776866138    ,-32.24495956876104  ,-128.35355809270987 , 19.38587109657352   , 42.784528409451575 , 33.57731813701057   ,-26.019808596783037   ,-60.094182485333015 ,-1.3908239721152953     ,-27.24764228002221  ,          0.0 ,          0.0 ,-25.95952789827904   ,-60.15445957739916  ,-27.24764228002221  ,-113.36166151692721 , 19.38587109657352   , 37.787211120712755  , 33.57731813701057   ,-2.918525569307885e-06  ,2.2297403046725985e-07  ,-5.673119990228253e-07  ,      0.0 ,      0.0 ,      0.0 ,2.507734253413201e-07   ,-2.9463246457973684e-06 ,      0.0 ,-2.695551403548555e-06  ,1.778847230940782e-06  ,0.4116537218906598   ,0.032738593211232396    ,-1.3728459021216575e-06 ,-7.533864282311461e-07  ,0.0                    ,1.568281454480466e-06  ,0.0 ,152.78599541648418    ,4.997317460999969       ,        0.0 ,        0.0 , 0.0
 0.0 ,0.0 ,           0.0 ,            0.0 ,            0.0 ,            0.0 ,              0.0 ,                   0.0 , 697.0 ,88.29099 ,-2.331062 ,           0.0 ,           0.0 ,       0.0 ,161.4902       ,-18.48008   ,-0.02072113      ,-0.002028213     ,                 0.0 ,             0.0 ,             0.0 ,                 0.0 ,                 0.0 ,        0.0 ,1.2936005098327314     ,            0.0 ,            0.0 ,            0.0 ,              0.0 ,                   0.0 ,  0.0 ,0.0 , 648.8088498486501   ,1.0                ,0.0 ,-20.33694194620748  ,-46.910695683280366 ,-0.9926032376328494     ,-22.829705799452164 ,          0.0 ,          0.0 ,-20.281343732729134 ,-46.96629500035442  ,-22.829705799452164 ,-90.07732186119605  , 14.729108367215524  , 30.02577988466822  , 25.511562527626122  ,-15.339345788279978   ,-41.91309575041752  ,-0.9926032376328494     ,-17.83210586658931  ,          0.0 ,          0.0 ,-15.28374622826803   ,-41.96869884242691  ,-17.83210586658931  ,-75.08455766995225  , 14.729108367215524  , 25.02818372674072   , 25.511562527626122  ,-9.051337539370539e-07  ,1.903087270527144e-07   ,4.2352512061421897e-07  ,      0.0 ,      0.0 ,      0.0 ,3.0189945278590406e-07  ,-1.0167242721648312e-06 ,      0.0 ,-7.148249891349861e-07  ,6.942420226880343e-07  ,0.23570595704010447  ,0.018985644081093794    ,-7.745947820435505e-07  ,-2.0929297798812014e-07 ,6.164363731463662e-07  ,59.38022441025002      ,0.0 ,102.14724016502396    ,3.1110822117153307      ,        0.0 ,        0.0 , 0.0
 0.0 ,0.0 ,           0.0 ,            0.0 ,            0.0 ,            0.0 ,              0.0 ,                   0.0 , 698.0 ,85.00271 ,-2.69152  ,           0.0 ,           0.0 ,       0.0 ,158.5681       ,-18.54833   ,0.002418223      ,0.0003901196     ,                 0.0 ,             0.0 ,             0.0 ,                 0.0 ,                 0.0 ,        0.0 ,2.5112220515568677     ,            0.0 ,            0.0 ,            0.0 ,              0.0 ,                   0.0 ,  0.0 ,0.0 , 732.3881863869595   ,1.0                ,0.0 ,-22.065919353577343 ,-53.40671007565383  ,-1.17992924938306       ,-25.77670624028299  ,          0.0 ,          0.0 ,-22.014065685370646 ,-53.458563634539686 ,-25.77670624028299  ,-101.2493209447054  , 17.183431902008156  , 33.74977527137055  , 29.762570870127348  ,-17.068359162205372   ,-48.40915471452636  ,-1.17992924938306       ,-20.779146049462216 ,          0.0 ,          0.0 ,-17.01650549308001   ,-48.46101329857022  ,-20.779146049462216 ,-86.25666483394689  , 17.183431902008156  , 28.752224883404793  , 29.762570870127348  ,-3.1840961815480898e-06 ,4.970302160671496e-07   ,1.2506496854086998e-07  ,      0.0 ,      0.0 ,      0.0 ,5.796027059645991e-07   ,-3.266669162394609e-06  ,      0.0 ,-2.6870663098050427e-06 ,2.0775784577377855e-06 ,0.21888398630417163  ,0.014845736701348478    ,-4.301930696427803e-07  ,-8.17576541544114e-08   ,3.5505905223307536e-07 ,78.90881260604144      ,0.0 ,81.31929257327042     ,2.456338157796079       ,        0.0 ,        0.0 , 0.0
 0.0 ,0.0 ,           0.0 ,            0.0 ,            0.0 ,            0.0 ,              0.0 ,                   0.0 , 699.0 ,83.46971 ,-2.251716 ,           0.0 ,           0.0 ,       0.0 ,163.1436       ,-18.56607   ,-0.001225254     ,-0.001247206     ,                 0.0 ,             0.0 ,             0.0 ,                 0.0 ,                 0.0 ,        0.0 ,1.5965395073716475     ,            0.0 ,            0.0 ,            0.0 ,              0.0 ,                   0.0 ,  0.0 ,0.0 , 681.0827092693697   ,1.0                ,0.0 ,-18.488488551790738 ,-45.889334382094205 ,-0.5103806988604631     ,-22.08436267676398  ,          0.0 ,          0.0 ,-18.47054074580687  ,-45.90728185155277  ,-22.08436267676398  ,-86.46217174615633  , 14.933900734022172  , 28.820725351922427 , 25.866271283255116  ,-13.490827530484271   ,-40.89168160947261  ,-0.5103806988604631     ,-17.086703590841296 ,          0.0 ,          0.0 ,-13.472881171937722  ,-40.909629418284425 ,-17.086703590841296 ,-71.46921367558373  , 14.933900734022172  , 23.82307275859247   , 25.866271283255116  ,-2.2046678520488934e-06 ,4.78650624585829e-07    ,8.14190403428495e-07    ,      0.0 ,      0.0 ,      0.0 ,6.750488031145655e-07   ,-2.4010661662432023e-06 ,      0.0 ,-1.7260175145324062e-06 ,1.620401755952312e-06  ,0.030568480355801994 ,-5.881673105047807e-07  ,-2.1401936693676117e-07 ,0.0                     ,6.323519615558306e-07  ,164.01733310767065     ,0.0 ,0.0                   ,0.0                     ,        0.0 ,        0.0 , 0.0
 0.0 ,0.0 ,           0.0 ,            0.0 ,            0.0 ,            0.0 ,              0.0 ,                   0.0 , 700.0 ,81.77793 ,-2.259184 ,           0.0 ,           0.0 ,       0.0 ,163.2372       ,-18.5829    ,-0.003403402     ,-0.0001694676    ,                 0.0 ,             0.0 ,             0.0 ,                 0.0 ,                 0.0 ,        0.0 ,1.9367194340440035     ,            0.0 ,            0.0 ,            0.0 ,              0.0 ,                   0.0 ,  0.0 ,0.0 , 666.776579568179    ,1.0                ,0.0 ,-17.639613317245782 ,-45.32845896343095  ,-0.036333335304400846   ,-21.69470183158155  ,          0.0 ,          0.0 ,-17.63953542068748  ,-45.32854192491936  ,-21.69470183158155  ,-84.66277420717914  , 14.967114371427211  , 28.220921476220365 , 25.92380297806224   ,-12.641965757077363   ,-40.330809987704065 ,-0.036333335304400846   ,-16.69705103116885  ,          0.0 ,          0.0 ,-12.64188414195512   ,-40.33089298083276  ,-16.69705103116885  ,-69.6698276882932   , 14.967114371427211  , 23.22327759295064   , 25.92380297806224   ,-2.421726209667204e-06  ,5.869769028705433e-07   ,1.2146730292939423e-06  ,      0.0 ,      0.0 ,      0.0 ,7.08212671004039e-07    ,-2.542961880964728e-06  ,      0.0 ,-1.8347492869211609e-06 ,1.709714812922302e-06  ,0.03062599230422994  ,-5.248270738475609e-07  ,-1.6240715703891094e-07 ,0.0                     ,5.512889443372866e-07  ,163.62209735812348     ,0.0 ,0.0                   ,0.0                     ,        0.0 ,        0.0 , 0.0
 0.0 ,0.0 ,           0.0 ,            0.0 ,            0.0 ,            0.0 ,              0.0 ,                   0.0 , 701.0 ,79.98534 ,-2.330227 ,           0.0 ,           0.0 ,       0.0 ,162.6656       ,-18.59679   ,0.0008694095     ,1.186061e-05     ,                 0.0 ,             0.0 ,             0.0 ,                 0.0 ,                 0.0 ,        0.0 ,2.0                    ,            0.0 ,            0.0 ,            0.0 ,              0.0 ,                   0.0 ,  0.0 ,0.0 , 884.5573547302456   ,1.0                ,0.0 ,-17.96839053172448  ,-47.000060429510775 ,0.07591615320475745     ,-22.420039229231747 ,          0.0 ,          0.0 ,-17.966328833971705 ,-47.0021315250203   ,-22.420039229231747 ,-87.38848149986055  , 15.705721294523265  , 29.129494735140646 , 27.2031098922553    ,-12.970775812587998   ,-42.002442184763346 ,0.07591615320475745     ,-17.422419579250096 ,          0.0 ,          0.0 ,-12.968709183990047  ,-42.00451098601292  ,-17.422419579250096 ,-72.39564406587805  , 15.705721294523265  , 24.131882274690533  , 27.2031098922553    ,-2.909368763757976e-06  ,7.048195381321945e-07   ,1.2150852293080323e-06  ,      0.0 ,      0.0 ,      0.0 ,8.322692114253171e-07   ,-3.0368182292898333e-06 ,      0.0 ,-2.204548905580112e-06  ,2.0366297968618126e-06 ,0.10485593928613779  ,0.00782424132870869     ,-2.104284729939537e-07  ,-3.739354099755838e-09  ,3.6339706358773226e-07 ,110.70647814708977     ,0.0 ,52.535484725918344    ,1.4333787786323589      ,        0.0 ,        0.0 , 0.0
 0.0 ,0.0 ,           0.0 ,            0.0 ,            0.0 ,            0.0 ,              0.0 ,                   0.0 , 702.0 ,78.12973 ,-2.393627 ,           0.0 ,           0.0 ,       0.0 ,162.1426       ,-18.60789   ,0.007555817      ,-0.0002285019    ,                 0.0 ,             0.0 ,             0.0 ,                 0.0 ,                 0.0 ,        0.0 ,1.7113028201899063     ,            0.0 ,            0.0 ,            0.0 ,              0.0 ,                   0.0 ,  0.0 ,0.0 , 883.4993096753703   ,1.0                ,0.0 ,-18.87228820398052  ,-48.39035950179011  ,0.529006220052511       ,-23.153316300972218 ,          0.0 ,          0.0 ,-18.860311425307508 ,-48.402344485854556 ,-23.153316300972218 ,-90.41593955162134  , 16.029223076488798  , 30.13865267706051  , 27.763434437941612  ,-13.874677883263107   ,-43.392750064486066 ,0.529006220052511       ,-18.15570622853438  ,          0.0 ,          0.0 ,-13.86270124605171   ,-43.40473302767027  ,-18.15570622853438  ,-75.4231578400916   , 16.029223076488798  , 25.14104843981027   , 27.763434437941612  ,-3.2976480873869755e-06 ,8.038993597301701e-07   ,1.278887800740603e-06   ,      0.0 ,      0.0 ,      0.0 ,9.342121228546764e-07   ,-3.4279607190084436e-06 ,      0.0 ,-2.4937488848472936e-06 ,2.2969219239158624e-06 ,0.14838716572727845  ,0.011317591527839165    ,-1.573784952525661e-07  ,-9.826686149169869e-09  ,2.540041843119343e-07  ,93.38029296603709      ,0.0 ,69.81351493049117     ,1.9805481124036226      ,        0.0 ,        0.0 , 0.0
 0.0 ,0.0 ,           0.0 ,            0.0 ,            0.0 ,            0.0 ,              0.0 ,                   0.0 , 703.0 ,76.23751 ,-2.445992 ,           0.0 ,           0.0 ,       0.0 ,161.7084       ,-18.61683   ,0.0112757        ,-0.0003282045    ,                 0.0 ,             0.0 ,             0.0 ,                 0.0 ,                 0.0 ,        0.0 ,1.7029166207438735     ,            0.0 ,            0.0 ,            0.0 ,              0.0 ,                   0.0 ,  0.0 ,0.0 , 886.5220580106148   ,1.0                ,0.0 ,-19.952937086169356 ,-49.30237738135431  ,0.9937594395758589      ,-23.72781412067566  ,          0.0 ,          0.0 ,-19.91491915319159  ,-49.34039849737905  ,-23.72781412067566  ,-92.98312446548775  , 16.07953738518849   , 30.99437424318054  , 27.85057396564503   ,-14.955340246336927   ,-44.30478145059702  ,0.9937594395758589      ,-18.73021753633494  ,          0.0 ,          0.0 ,-14.917322458930016  ,-44.34280048703811  ,-18.73021753633494  ,-77.99037265344835  , 16.07953738518849   , 25.996778402832255  , 27.85057396564503   ,-3.5291902006544118e-06 ,8.706214377305321e-07   ,1.371861505192114e-06   ,      0.0 ,      0.0 ,      0.0 ,1.0083955704802945e-06  ,-3.666964253593004e-06  ,      0.0 ,-2.658569319392775e-06  ,2.460565962521499e-06  ,0.3613064862652348   ,0.02782754048453087     ,-2.0989450725547257e-07 ,-4.659524064729732e-08  ,4.0051092738378574e-08 ,14.724099259356906     ,0.0 ,148.13451987527117    ,4.521869274480936       ,        0.0 ,        0.0 , 0.0
 0.0 ,0.0 ,           0.0 ,            0.0 ,            0.0 ,            0.0 ,              0.0 ,                   0.0 , 704.0 ,74.32375 ,-2.49255  ,           0.0 ,           0.0 ,       0.0 ,161.3168       ,-18.62423   ,0.01332757       ,-0.0004952867    ,                 0.0 ,             0.0 ,             0.0 ,                 0.0 ,                 0.0 ,        0.0 ,2.9834876506563037     ,            0.0 ,            0.0 ,            0.0 ,              0.0 ,                   0.0 ,  0.0 ,0.0 , 641.7219421291113   ,1.0                ,0.0 ,-21.43311171903569  ,-50.07538700666698  ,1.2406341607305507      ,-24.326905890884472 ,          0.0 ,          0.0 ,-21.379076914608017 ,-50.12942181109464  ,-24.326905890884472 ,-95.83540445429026  , 15.818556853406378  , 31.94513483518753  , 27.398542401597044  ,-16.43549559739772    ,-45.07776989613146  ,1.2406341607305507      ,-19.32928872624999  ,          0.0 ,          0.0 ,-16.381460298521276  ,-45.13180470055912  ,-19.32928872624999  ,-80.84258312833693  , 15.818556853406378  , 26.947517724652016  , 27.398542401597044  ,-4.1923321212491255e-06 ,1.0359823405187423e-06  ,1.39305004981428e-06    ,      0.0 ,      0.0 ,      0.0 ,1.1510540511428533e-06  ,-4.307403781318113e-06  ,      0.0 ,-3.156350230316591e-06  ,2.877469537963989e-06  ,0.3970927221203473   ,0.030650371479098215    ,-1.737347343476956e-07  ,-4.1735476422332926e-08 ,7.642754826576323e-10  ,0.8338501700780047     ,0.0 ,161.81490832266286    ,4.970580369554528       ,        0.0 ,        0.0 , 0.0
 0.0 ,0.0 ,           0.0 ,            0.0 ,            0.0 ,            0.0 ,              0.0 ,                   0.0 , 705.0 ,72.39571 ,-2.536279 ,           0.0 ,           0.0 ,       0.0 ,160.9426       ,-18.63054   ,0.01346462       ,-0.0004663208    ,                 0.0 ,             0.0 ,             0.0 ,                 0.0 ,                 0.0 ,        0.0 ,2.993785811182367      ,            0.0 ,            0.0 ,            0.0 ,              0.0 ,                   0.0 ,  0.0 ,0.0 , 638.4150174204385   ,1.0                ,0.0 ,-22.911298521354855 ,-50.76213013787078  ,1.6088607541484055      ,-24.88461418113576  ,          0.0 ,          0.0 ,-22.817292014771926 ,-50.8561366444537   ,-24.88461418113576  ,-98.55803780929044  , 15.63504524854078   , 32.85268590555929  , 27.08069485557057   ,-17.91369698413124    ,-45.76452273054483  ,1.6088607541484055      ,-19.88701172750355  ,          0.0 ,          0.0 ,-17.819689980655404  ,-45.85852923712776  ,-19.88701172750355  ,-83.56525027840404  , 15.63504524854078   , 27.855078498233357  , 27.08069485557057   ,-4.369469595579947e-06  ,1.102202486523039e-06   ,1.3659465360005253e-06  ,      0.0 ,      0.0 ,      0.0 ,1.2038353029856096e-06  ,-4.471102412042518e-06  ,      0.0 ,-3.2672671013191858e-06 ,2.99032478579069e-06   ,0.38470354968062476  ,0.030898146222768364    ,-1.411524072879205e-07  ,-2.263244576451406e-08  ,0.0                    ,1.430516332861379e-07  ,0.0 ,162.32899084062748    ,4.997603952168708       ,        0.0 ,        0.0 , 0.0
 0.0 ,0.0 ,           0.0 ,            0.0 ,            0.0 ,            0.0 ,              0.0 ,                   0.0 , 706.0 ,70.45942 ,-2.578813 ,           0.0 ,           0.0 ,       0.0 ,160.5727       ,-18.63608   ,0.01245766       ,-0.0004176042    ,                 0.0 ,             0.0 ,             0.0 ,                 0.0 ,                 0.0 ,        0.0 ,2.0068339743926447     ,            0.0 ,            0.0 ,            0.0 ,              0.0 ,                   0.0 ,  0.0 ,0.0 , 637.9166121866426   ,1.0                ,0.0 ,-24.464720743157866 ,-51.47395484734217  ,1.7874520039443398      ,-25.475990839079763 ,          0.0 ,          0.0 ,-24.346175893663286 ,-51.592499696836754 ,-25.475990839079763 ,-101.4146564295798  , 15.421450789407965  , 33.804887158932516 , 26.71073439955806   ,-19.46713332510549    ,-46.4763724081678   ,1.7874520039443398      ,-20.478408399905383 ,          0.0 ,          0.0 ,-19.34858847561091   ,-46.59491725766238  ,-20.478408399905383 ,-86.42190924873616  , 15.421450789407965  , 28.8073096725404    , 26.71073439955806   ,-4.138639095998181e-06  ,1.0691633266543808e-06  ,1.358742575012214e-06   ,      0.0 ,      0.0 ,      0.0 ,1.163879891700146e-06   ,-4.233355658993754e-06  ,      0.0 ,-3.0694752687224103e-06 ,2.8404802658607897e-06 ,0.36740755574368633  ,0.031044456879952498    ,-1.55288616939961e-07   ,-1.937862060800891e-08  ,0.0                    ,1.5652590233814121e-07 ,0.0 ,161.53451878211155    ,4.997581894443504       ,        0.0 ,        0.0 , 0.0
 0.0 ,0.0 ,           0.0 ,            0.0 ,            0.0 ,            0.0 ,              0.0 ,                   0.0 , 707.0 ,68.51853 ,-2.621549 ,           0.0 ,           0.0 ,       0.0 ,160.1953       ,-18.64108   ,0.01090032       ,0.000135322      ,                 0.0 ,             0.0 ,             0.0 ,                 0.0 ,                 0.0 ,        0.0 ,3.0062999189861292     ,            0.0 ,            0.0 ,            0.0 ,              0.0 ,                   0.0 ,  0.0 ,0.0 , 637.4264637651836   ,0.9999999999999999 ,0.0 ,-26.033030000557225 ,-52.16824258196033  ,1.8688085696809822      ,-26.06651779159216  ,          0.0 ,          0.0 ,-25.899910163976845 ,-52.30136241854071  ,-26.06651779159216  ,-104.26778043710891 , 15.198447120378688  , 34.75592845287936  , 26.3244830227524    ,-21.035496833908063   ,-47.170709415311165 ,1.8688085696809822      ,-21.068984687942187 ,          0.0 ,          0.0 ,-20.902377060326874  ,-47.30382925189154  ,-21.068984687942187 ,-89.27518607974409  , 15.198447120378688  , 29.758395349229385  , 26.3244830227524    ,-2.7806857130682785e-06 ,7.290837441547263e-07   ,1.3725003797607626e-06  ,      0.0 ,      0.0 ,      0.0 ,8.696059379069154e-07   ,-2.9212074106115456e-06 ,      0.0 ,-2.051601472384071e-06  ,1.9860970438659e-06    ,0.1703857295080005   ,0.014892788276496963    ,-8.88876623157023e-08   ,-3.1107726536316993e-09 ,1.1284669049081871e-07 ,74.3345809904593       ,0.0 ,85.49873854478614     ,2.522664759189716       ,        0.0 ,        0.0 , 0.0
 0.0 ,0.0 ,           0.0 ,            0.0 ,            0.0 ,            0.0 ,              0.0 ,                   0.0 , 708.0 ,66.57443 ,-2.664827 ,           0.0 ,           0.0 ,       0.0 ,159.8088       ,-18.64571   ,0.01071379       ,-4.770066e-05    ,                 0.0 ,             0.0 ,             0.0 ,                 0.0 ,                 0.0 ,        0.0 ,3.993939805871772      ,            0.0 ,            0.0 ,            0.0 ,              0.0 ,                   0.0 ,  0.0 ,0.0 , 636.9375764563608   ,1.0                ,0.0 ,-27.701179508497894 ,-52.8539549709634   ,1.8396091480339396      ,-26.67664665541755  ,          0.0 ,          0.0 ,-27.567281650791138 ,-52.987852828670164 ,-26.67664665541755  ,-107.23176132596583 , 14.941029193461187  , 35.74392536236903  , 25.878623126097793  ,-22.70359205357673    ,-47.856367576644175 ,1.8396091480339396      ,-21.67906424826812  ,          0.0 ,          0.0 ,-22.56969918303977   ,-47.990265373749    ,-21.67906424826812  ,-92.2390437223436   , 14.941029193461187  , 30.746342955219603  , 25.878623126097793  ,-5.285667705033311e-06  ,1.4260465018653034e-06  ,8.925642063557785e-07   ,      0.0 ,      0.0 ,      0.0 ,1.458567188935973e-06   ,-5.318188885508748e-06  ,      0.0 ,-3.859621203774027e-06  ,3.5670189777416163e-06 ,0.16032987273433802  ,0.01453991022253078     ,-3.8449964268570575e-08 ,-1.692999519646729e-09  ,4.876635652924753e-08  ,76.16628423176915      ,0.0 ,85.49295729386493     ,2.492525127110827       ,        0.0 ,        0.0 , 0.0
 0.0 ,0.0 ,           0.0 ,            0.0 ,            0.0 ,            0.0 ,              0.0 ,                   0.0 , 709.0 ,64.62731 ,-2.709072 ,           0.0 ,           0.0 ,       0.0 ,159.41         ,-18.65007   ,0.009443538      ,-4.87064e-05     ,                 0.0 ,             0.0 ,             0.0 ,                 0.0 ,                 0.0 ,        0.0 ,1.5146942898590265     ,            0.0 ,            0.0 ,            0.0 ,              0.0 ,                   0.0 ,  0.0 ,0.0 , 636.4380449797757   ,1.0                ,0.0 ,-29.068480492708147 ,-53.604777490060926 ,1.7302482435478315      ,-27.25086539118781  ,          0.0 ,          0.0 ,-28.946295630019044 ,-53.72696736601094  ,-27.25086539118781  ,-109.92413333823683 , 14.821077302521456  , 36.641372837233845 , 25.670855531484776  ,-24.07096751813012    ,-48.60726950222198  ,1.7302482435478315      ,-22.25335740334887  ,          0.0 ,          0.0 ,-23.948782593199137  ,-48.72945439143291  ,-22.25335740334887  ,-94.93160432573904  , 14.821077302521456  , 31.64386478715303   , 25.670855531484776  ,-1.692395351476143e-06  ,4.610723044202213e-07   ,3.508943710299785e-07   ,      0.0 ,      0.0 ,      0.0 ,4.753248239459833e-07   ,-1.7066477213997323e-06 ,      0.0 ,-1.2313231031475004e-06 ,1.14743096628667e-06   ,0.03149783805738621  ,-1.1841638404753905e-07 ,-3.6637405490960618e-09 ,0.0                     ,1.1848727345948066e-07 ,159.27861306506148     ,0.0 ,0.0                   ,0.0                     ,        0.0 ,        0.0 , 0.0
 0.0 ,0.0 ,           0.0 ,            0.0 ,            0.0 ,            0.0 ,              0.0 ,                   0.0 , 710.0 ,62.67589 ,-2.75551  ,           0.0 ,           0.0 ,       0.0 ,158.9874       ,-18.65425   ,0.00853383       ,-3.057131e-05    ,                 0.0 ,             0.0 ,             0.0 ,                 0.0 ,                 0.0 ,        0.0 ,3.494750201947608      ,            0.0 ,            0.0 ,            0.0 ,              0.0 ,                   0.0 ,  0.0 ,0.0 , 635.9139543889432   ,1.0                ,0.0 ,-30.57241904801494  ,-54.4085379309051   ,1.6048123807650478      ,-27.874083441680643 ,          0.0 ,          0.0 ,-30.4634592039668   ,-54.51749780813351  ,-27.874083441680643 ,-112.85504045378096 , 14.694555136307626  , 37.61834847815442  , 25.451719617294003  ,-25.574886179943718   ,-49.41100499101819  ,1.6048123807650478      ,-22.87655050179373  ,          0.0 ,          0.0 ,-25.465926230899615  ,-49.51996988756431  ,-22.87655050179373  ,-97.86246146276372  , 14.694555136307626  , 32.62081550508723   , 25.451719617294003  ,-4.677771013984113e-06  ,1.2952961434600416e-06  ,6.717671918022816e-07   ,      0.0 ,      0.0 ,      0.0 ,1.315328712659536e-06   ,-4.697803081251836e-06  ,      0.0 ,-3.382475361410731e-06  ,3.1611595191486836e-06 ,0.21413036946993277  ,0.016638327142830985    ,-4.860484664247979e-08  ,-1.3629304718742246e-09 ,7.6543225075393e-08    ,84.14593780053211      ,0.0 ,75.68142512506823     ,2.50827907856831        ,        0.0 ,        0.0 , 0.0
 0.0 ,0.0 ,           0.0 ,            0.0 ,            0.0 ,            0.0 ,              0.0 ,                   0.0 , 711.0 ,60.71596 ,-2.807342 ,           0.0 ,           0.0 ,       0.0 ,158.5098       ,-18.65832   ,0.007821512      ,-8.037584e-05    ,                 0.0 ,             0.0 ,             0.0 ,                 0.0 ,                 0.0 ,        0.0 ,2.993903956546729      ,            0.0 ,            0.0 ,            0.0 ,              0.0 ,                   0.0 ,  0.0 ,0.0 , 640.1736228659998   ,1.0                ,0.0 ,-31.90458664113588  ,-55.37353915101508  ,1.4921863729468319      ,-28.52099945791357  ,          0.0 ,          0.0 ,-31.807939105241314 ,-55.47018662594921  ,-28.52099945791357  ,-115.79911522829107 , 14.715577427399662  , 38.599710076823676 , 25.48813329613622   ,-26.907108191271334   ,-50.37606071682795  ,1.4921863729468319      ,-23.5235160677041   ,          0.0 ,          0.0 ,-26.810455721127887  ,-50.47271318697139  ,-23.5235160677041   ,-100.80669493052035 , 14.715577427399662  , 33.60222667442213   , 25.48813329613622   ,-4.335109032557292e-06  ,1.0600298113550307e-06  ,9.790736861883917e-07   ,      0.0 ,      0.0 ,      0.0 ,1.129941498668503e-06   ,-4.405019725966807e-06  ,      0.0 ,-3.2750782577785215e-06 ,2.9307006175100817e-06 ,0.15718544085611796  ,0.014683511644824935    ,-7.67919900553034e-08   ,-7.914751907687173e-10  ,1.1158370702065871e-07 ,74.74915188572288      ,0.0 ,83.68937902655465     ,2.4782291008837674      ,        0.0 ,        0.0 , 0.0
 0.0 ,0.0 ,           0.0 ,            0.0 ,            0.0 ,            0.0 ,              0.0 ,                   0.0 , 712.0 ,58.73644 ,-2.873271 ,           0.0 ,           0.0 ,       0.0 ,157.8906       ,-18.66233   ,0.007211786      ,0.0002200037     ,                 0.0 ,             0.0 ,             0.0 ,                 0.0 ,                 0.0 ,        0.0 ,2.179918505619561      ,            0.0 ,            0.0 ,            0.0 ,              0.0 ,                   0.0 ,  0.0 ,0.0 , 874.7110303984123   ,1.0                ,0.0 ,-33.52710886174616  ,-56.25696997469818  ,1.20513157469067        ,-29.26187223544094  ,          0.0 ,          0.0 ,-33.43673439466054  ,-56.34734142163467  ,-29.26187223544094  ,-119.04596517602928 , 14.859453885477254  , 39.68198601724538  , 25.737333599644288  ,-28.529654732728687   ,-51.25951216218503  ,1.20513157469067        ,-24.264419012468206 ,          0.0 ,          0.0 ,-28.43928147370272   ,-51.349885421211    ,-24.264419012468206 ,-104.05358920373712 , 14.859453885477254  , 34.68452700957701   , 25.737333599644288  ,-5.878735836865703e-06  ,-3.0273771297855417e-07 ,7.723127803967935e-07   ,      0.0 ,      0.0 ,      0.0 ,-2.6627769429026525e-07 ,-5.915196193702067e-06  ,      0.0 ,-6.1814753980668994e-06 ,3.553841463792877e-06  ,0.22198547503006114  ,0.017483720086409783    ,-7.533225763543622e-08  ,-1.501019691259917e-09  ,6.343214012003121e-08  ,82.16586825976344      ,0.0 ,76.71110301943925     ,2.5888574528711854      ,        0.0 ,        0.0 , 0.0
 0.0 ,0.0 ,           0.0 ,            0.0 ,            0.0 ,            0.0 ,              0.0 ,                   0.0 , 713.0 ,56.70718 ,-2.977674 ,           0.0 ,           0.0 ,       0.0 ,156.8868       ,-18.66635   ,0.006918763      ,-0.0006363187    ,                 0.0 ,             0.0 ,             0.0 ,                 0.0 ,                 0.0 ,        0.0 ,2.7733638682702084     ,            0.0 ,            0.0 ,            0.0 ,              0.0 ,                   0.0 ,  0.0 ,0.0 , 876.2492042247051   ,1.0                ,0.0 ,-35.35010124531031  ,-58.41088912496252  ,1.220620406160655       ,-30.47487026946771  ,          0.0 ,          0.0 ,-35.1003181914647   ,-58.66067757668479  ,-30.47487026946771  ,-124.23585477917632 , 15.365390855779363  , 41.41195365163448  , 26.613645276626322  ,-30.352659888702643   ,-53.4134456159232   ,1.220620406160655       ,-25.477434310736694 ,          0.0 ,          0.0 ,-30.10287652864557   ,-53.66323437385692  ,-25.477434310736694 ,-109.24354104020838 , 15.365390855779363  , 36.41451106122955   , 26.613645276626322  ,-6.385330538073603e-06  ,1.3881388251254566e-07  ,3.0948315445904325e-07  ,      0.0 ,      0.0 ,      0.0 ,1.4768263177223986e-07  ,-6.3941994413341694e-06 ,      0.0 ,-6.246516503350468e-06  ,3.868981582152241e-06  ,0.0883717966462221   ,0.005197176299403066    ,-2.2624484717984748e-08 ,-4.4619427449623874e-10 ,6.671374296759651e-08  ,135.94947273386538     ,0.0 ,22.803201821313078    ,0.769565768979653       ,        0.0 ,        0.0 , 0.0
 0.0 ,0.0 ,           0.0 ,            0.0 ,            0.0 ,            0.0 ,              0.0 ,                   0.0 , 714.0 ,52.47203 ,-2.748722 ,           0.0 ,           0.0 ,       0.0 ,159.2574       ,-18.67447   ,-0.0009482455    ,0.0001024251     ,                 0.0 ,             0.0 ,             0.0 ,                 0.0 ,                 0.0 ,        0.0 ,0.7111988761903296     ,            0.0 ,            0.0 ,            0.0 ,              0.0 ,                   0.0 ,  0.0 ,0.0 , 895.7598854476727   ,1.0                ,0.0 ,-34.70481981979467  ,-53.81193523883322  ,0.7588467179196825      ,-28.43899560678865  ,          0.0 ,          0.0 ,-33.8532647479349   ,-54.66349618319795  ,-28.43899560678865  ,-116.95575348135164 , 13.952795559989298  , 38.98525198677308  , 24.16695754013745   ,-29.707288141420385   ,-48.814402694055566 ,0.7588467179196825      ,-23.441462400129424 ,          0.0 ,          0.0 ,-28.855731625554988  ,-49.66596326533985  ,-23.441462400129424 ,-101.96318069676477 , 13.952795559989298  , 33.987720019597674  , 24.16695754013745   ,-3.8888947303763286e-06 ,1.0479702608334667e-06  ,-3.96444453216879e-07   ,      0.0 ,      0.0 ,      0.0 ,1.0561869137236999e-06  ,-3.897111383266561e-06  ,      0.0 ,-2.840924469542861e-06  ,2.6089105055345778e-06 ,0.11115156279949717  ,0.01194590848843958     ,-2.0636862103396283e-08 ,-8.808542786400599e-11  ,4.648132887865439e-08  ,89.00673877685139      ,0.0 ,71.75115015012665     ,2.0628769364269774      ,        0.0 ,        0.0 , 0.0
 0.0 ,0.0 ,           0.0 ,            0.0 ,            0.0 ,            0.0 ,              0.0 ,                   0.0 , 715.0 ,50.51563 ,-2.660667 ,           0.0 ,           0.0 ,       0.0 ,160.1741       ,-18.67807   ,-0.0009384771    ,0.0008666299     ,                 0.0 ,             0.0 ,             0.0 ,                 0.0 ,                 0.0 ,        0.0 ,1.9294302163151589     ,            0.0 ,            0.0 ,            0.0 ,              0.0 ,                   0.0 ,  0.0 ,0.0 , 895.615587259931    ,1.0                ,0.0 ,-33.91276785252912  ,-51.995245081648996 ,0.25741525313062086     ,-27.571057149752395 ,          0.0 ,          0.0 ,-33.022259521487165 ,-52.885756316767115 ,-27.571057149752395 ,-113.47906751216289 , 13.414526388552318  , 37.82635669485325  , 23.234645072919182  ,-28.91521133773579    ,-46.99768972848614  ,0.25741525313062086     ,-22.573495862925377 ,          0.0 ,          0.0 ,-28.024704168953534  ,-47.88819444912486  ,-22.573495862925377 ,-98.48638506056052  , 13.414526388552318  , 32.828801632098     , 23.234645072919182  ,-5.661254697743384e-06  ,1.0803088894629022e-06  ,-3.267348820136315e-07  ,      0.0 ,      0.0 ,      0.0 ,1.0946891550166391e-06  ,-5.675635105659775e-06  ,      0.0 ,-4.580945962259441e-06  ,3.6499322399237412e-06 ,0.2762200497918733   ,0.023237825634651686    ,-7.718955663911277e-08  ,-7.939626264414326e-11  ,3.395297724484042e-08  ,53.18182384378172      ,0.0 ,108.28460690701318    ,3.5460587855729013      ,        0.0 ,        0.0 , 0.0
 0.0 ,0.0 ,           0.0 ,            0.0 ,            0.0 ,            0.0 ,              0.0 ,                   0.0 , 716.0 ,48.58708 ,-2.649861 ,           0.0 ,           0.0 ,       0.0 ,160.3166       ,-18.68152   ,-0.00267115      ,0.0005267164     ,                 0.0 ,             0.0 ,             0.0 ,                 0.0 ,                 0.0 ,        0.0 ,1.9356847268141024     ,            0.0 ,            0.0 ,            0.0 ,              0.0 ,                   0.0 ,  0.0 ,0.0 , 894.6748687605387   ,1.0                ,0.0 ,-33.79318030950281  ,-52.23526242926838  ,-0.30529361329478333    ,-27.598947787970257 ,          0.0 ,          0.0 ,-33.09166850888365  ,-52.93677713534053  ,-27.598947787970257 ,-113.6274076347121  , 13.455139439664823  , 37.87579705093107  , 23.304985266552784  ,-28.795646219914854   ,-47.23772804913512  ,-0.30529361329478333    ,-22.601414753540194 ,          0.0 ,          0.0 ,-28.09413755323184   ,-47.93924217411667  ,-22.601414753540194 ,-98.63478417691978  , 13.455139439664823  , 32.87826546922749   , 23.304985266552784  ,-4.073804764395937e-06  ,1.0934773328758352e-06  ,2.4767063584402304e-07  ,      0.0 ,      0.0 ,      0.0 ,1.1025002377658507e-06  ,-4.082828186061276e-06  ,      0.0 ,-2.9803279482954246e-06 ,2.7317017175209877e-06 ,0.21010085893493127  ,0.017050010516499056    ,-1.0687772926119216e-07 ,7.174288454880047e-11   ,3.523375156640894e-08  ,82.49902787851889      ,0.0 ,78.27290920843035     ,2.5824699528355985      ,        0.0 ,        0.0 , 0.0
 0.0 ,0.0 ,           0.0 ,            0.0 ,            0.0 ,            0.0 ,              0.0 ,                   0.0 , 717.0 ,46.66417 ,-2.652247 ,           0.0 ,           0.0 ,       0.0 ,160.3258       ,-18.68483   ,-0.004515946     ,0.0003801518     ,                 0.0 ,             0.0 ,             0.0 ,                 0.0 ,                 0.0 ,        0.0 ,1.3111932193263585     ,            0.0 ,            0.0 ,            0.0 ,              0.0 ,                   0.0 ,  0.0 ,0.0 , 892.6645668228489   ,1.0                ,0.0 ,-33.414841258247165 ,-52.36493108408015  ,-0.6643664832947704     ,-27.639759388463983 ,          0.0 ,          0.0 ,-32.8607358965606   ,-52.919033540458294 ,-27.639759388463983 ,-113.41952260161847 , 13.496374816188261  , 37.80650887582647  , 23.37640749153569   ,-28.417284221594116   ,-47.3673720560474   ,-0.6643664832947704     ,-22.6422066258665   ,          0.0 ,          0.0 ,-27.863177740120385  ,-47.92147853752114  ,-22.6422066258665   ,-98.42688132461056  , 13.496374816188261  , 32.808955241636454  , 23.37640749153569   ,-4.82525462938051e-06   ,3.1096773098524e-07     ,-4.564179614880671e-07  ,      0.0 ,      0.0 ,      0.0 ,3.231547143188501e-07   ,-4.83744161271412e-06   ,      0.0 ,-4.51428689839527e-06   ,2.9509193358169806e-06 ,0.06291039334877142  ,0.007852691577960938    ,-1.3553698305717992e-08 ,-4.578289592415166e-12  ,7.819391503152838e-08  ,107.94507619444383     ,0.0 ,53.72455647821113     ,1.4521234079555543      ,        0.0 ,        0.0 , 0.0
 0.0 ,0.0 ,           0.0 ,            0.0 ,            0.0 ,            0.0 ,              0.0 ,                   0.0 , 718.0 ,44.73759 ,-2.65549  ,           0.0 ,           0.0 ,       0.0 ,160.3248       ,-18.68797   ,-0.005935866     ,0.0001910294     ,                 0.0 ,             0.0 ,             0.0 ,                 0.0 ,                 0.0 ,        0.0 ,1.0727015216056217     ,            0.0 ,            0.0 ,            0.0 ,              0.0 ,                   0.0 ,  0.0 ,0.0 , 888.5390964329677   ,1.0                ,0.0 ,-32.80159044208553  ,-52.56939933733482  ,-0.9240671858115405     ,-27.617815472082107 ,          0.0 ,          0.0 ,-32.45575956660149  ,-52.915233115192585 ,-27.617815472082107 ,-112.98880935905228 , 13.632995444583894  , 37.66293538191656  , 23.61303864789096   ,-27.804059744757865   ,-47.57185980095664  ,-0.9240671858115405     ,-22.620276225941296 ,          0.0 ,          0.0 ,-27.45822088916788   ,-47.917698366309246 ,-22.620276225941296 ,-97.99620563688286  , 13.632995444583894  , 32.66539699472031   , 23.61303864789096   ,-3.1773020664642517e-06 ,-5.333815652061694e-07  ,-4.865636531772073e-07  ,      0.0 ,      0.0 ,      0.0 ,-5.0631182702279e-07    ,-3.204372296874409e-06  ,      0.0 ,-3.7106849946093156e-06 ,1.7785450286402858e-06 ,0.13042671519254362  ,0.014495472069615559    ,-5.1559530043174324e-08 ,-5.606938367027753e-11  ,3.0190535381384965e-08 ,76.74332155276298      ,0.0 ,84.18428924029267     ,2.4600581434446         ,        0.0 ,        0.0 , 0.0
 0.0 ,0.0 ,           0.0 ,            0.0 ,            0.0 ,            0.0 ,              0.0 ,                   0.0 , 719.0 ,42.80577 ,-2.657207 ,           0.0 ,           0.0 ,       0.0 ,160.3369       ,-18.6909    ,-0.006891825     ,0.0001019368     ,                 0.0 ,             0.0 ,             0.0 ,                 0.0 ,                 0.0 ,        0.0 ,0.7102033170485073     ,            0.0 ,            0.0 ,            0.0 ,              0.0 ,                   0.0 ,  0.0 ,0.0 , 886.0663166461795   ,1.0                ,0.0 ,-32.171366004738644 ,-52.71352758076997  ,-1.0659008890237545     ,-27.49675679920326  ,          0.0 ,          0.0 ,-32.05993912040198  ,-52.82495650305323  ,-27.49675679920326  ,-112.38162838021566 , 13.771680038011313  , 37.46054616946294  , 23.85325239669135   ,-27.173796775562426   ,-47.7159509597639   ,-1.0659008890237545     ,-22.499180757790562 ,          0.0 ,          0.0 ,-27.06236814307585   ,-47.82737988204716  ,-22.499180757790562 ,-97.38893576614342  , 13.771680038011313  , 32.46297694028672   , 23.85325239669135   ,-3.1721761709647752e-06 ,7.641523038460818e-07   ,-1.2093493079226495e-06 ,      0.0 ,      0.0 ,      0.0 ,8.560602690108851e-07   ,-3.2640848463328955e-06 ,      0.0 ,-2.4080243735273507e-06 ,2.174225383053508e-06  ,0.2351133394166796   ,0.02443108132456033     ,-4.66102177165499e-08   ,-3.311078606889526e-10  ,1.5461010238263776e-08 ,31.26132640358742      ,0.0 ,130.60681443986084    ,3.979139761001421       ,        0.0 ,        0.0 , 0.0
 0.0 ,0.0 ,           0.0 ,            0.0 ,            0.0 ,            0.0 ,              0.0 ,                   0.0 , 720.0 ,40.86989 ,-2.657514 ,           0.0 ,           0.0 ,       0.0 ,160.3605       ,-18.69356   ,-0.007500723     ,5.74131e-05      ,                 0.0 ,             0.0 ,             0.0 ,                 0.0 ,                 0.0 ,        0.0 ,0.7107311071199278     ,            0.0 ,            0.0 ,            0.0 ,              0.0 ,                   0.0 ,  0.0 ,0.0 , 883.8464497192539   ,1.0                ,0.0 ,-31.419860735243567 ,-52.806699936372056 ,-1.097316570589781      ,-27.387765272773223 ,          0.0 ,          0.0 ,-31.356299358345357 ,-52.8702663693913   ,-27.387765272773223 ,-111.61431473469771 , 13.917898556731169  , 37.20477431315261  , 24.10651098329353   ,-26.42229279135598    ,-47.809125174442286 ,-1.097316570589781      ,-22.390189643036774 ,          0.0 ,          0.0 ,-26.35872459641559   ,-47.87269365865156  ,-22.390189643036774 ,-96.62162627473265  , 13.917898556731169  , 32.207204318074986  , 24.10651098329353   ,-2.900364735519216e-06  ,7.355169080428656e-07   ,-1.421485868706404e-06  ,      0.0 ,      0.0 ,      0.0 ,8.706721804626704e-07   ,-3.0355207186701275e-06 ,      0.0 ,-2.16484782747635e-06   ,2.0507681414279925e-06 ,0.10409605333934646  ,0.0066784859652264895   ,-1.5903928986732697e-08 ,-3.0700776493485165e-11 ,4.518608170002341e-08  ,130.4208118697957      ,0.0 ,31.482587572336513    ,1.0250512431029082      ,        0.0 ,        0.0 , 0.0
 0.0 ,0.0 ,           0.0 ,            0.0 ,            0.0 ,            0.0 ,              0.0 ,                   0.0 , 721.0 ,38.93091 ,-2.657031 ,           0.0 ,           0.0 ,       0.0 ,160.3883       ,-18.69586   ,-0.007922625     ,1.695769e-05     ,                 0.0 ,             0.0 ,             0.0 ,                 0.0 ,                 0.0 ,        0.0 ,1.3711747141739317     ,            0.0 ,            0.0 ,            0.0 ,              0.0 ,                   0.0 ,  0.0 ,0.0 , 881.0920980590192   ,0.9999999999999999 ,0.0 ,-30.696862092384734 ,-52.83848250631789  ,-1.0633359433228722     ,-27.29603899572813  ,          0.0 ,          0.0 ,-30.643794445497225 ,-52.89154932840498  ,-27.29603899572813  ,-110.8313637813115  , 14.05326815557168   , 36.943795074095085 , 24.340979108595793  ,-25.69930326211359    ,-47.840917759055756 ,-1.0633359433228722     ,-22.298475691939355 ,          0.0 ,          0.0 ,-25.646229945646166  ,-47.89398901337687  ,-22.298475691939355 ,-95.83870060923695  , 14.05326815557168   , 31.946232925084995  , 24.340979108595793  ,-3.734862856643422e-06  ,-2.3634883824900883e-07 ,-1.142010865532262e-06  ,      0.0 ,      0.0 ,      0.0 ,-1.1563909214602936e-07 ,-3.855573107837098e-06  ,      0.0 ,-3.97121169489243e-06   ,2.3111322266194564e-06 ,0.23728413603287604  ,0.02430587265387074     ,-7.438344965014273e-08  ,-9.12255315879454e-11   ,7.744400763007203e-09  ,31.215739779138442     ,0.0 ,130.51889879235662    ,3.967052611627282       ,        0.0 ,        0.0 , 0.0
 0.0 ,0.0 ,           0.0 ,            0.0 ,            0.0 ,            0.0 ,              0.0 ,                   0.0 , 722.0 ,36.98969 ,-2.656215 ,           0.0 ,           0.0 ,       0.0 ,160.4146       ,-18.69768   ,-0.008208403     ,-2.328977e-05    ,                 0.0 ,             0.0 ,             0.0 ,                 0.0 ,                 0.0 ,        0.0 ,1.2786310235329283     ,            0.0 ,            0.0 ,            0.0 ,              0.0 ,                   0.0 ,  0.0 ,0.0 , 878.3242216126114   ,1.0                ,0.0 ,-29.94728941123928  ,-52.84292663150376  ,-1.0083233825307052     ,-27.123975458509676 ,          0.0 ,          0.0 ,-29.902396055724985 ,-52.88782296271187  ,-27.123975458509676 ,-109.91418703010723 , 14.229752713117529  , 36.63806472961545  , 24.646656214258584  ,-24.94975195769613    ,-47.84538860176019  ,-1.0083233825307052     ,-22.12643800496653  ,          0.0 ,          0.0 ,-24.904855626488     ,-47.89028195727448  ,-22.12643800496653  ,-94.92158213152656  , 14.229752713117529  , 31.64052934772436   , 24.646656214258584  ,-2.4853003931801167e-06 ,2.123611314247166e-07   ,-4.0457706777404744e-07 ,      0.0 ,      0.0 ,      0.0 ,2.4725168417361625e-07  ,-2.5201908594989554e-06 ,      0.0 ,-2.2729391753253388e-06 ,1.5439892464940664e-06 ,0.13389262714337727  ,0.014601741524618843    ,-6.643996646845321e-08  ,-7.588918235021768e-11  ,1.8955332764083944e-08 ,76.40419862071194      ,0.0 ,84.63126406149532     ,2.475241807490946       ,        0.0 ,        0.0 , 0.0
 0.0 ,0.0 ,           0.0 ,            0.0 ,            0.0 ,            0.0 ,              0.0 ,                   0.0 , 723.0 ,35.04691 ,-2.655316 ,           0.0 ,           0.0 ,       0.0 ,160.4354       ,-18.69886   ,-0.008405229     ,-5.896394e-05    ,                 0.0 ,             0.0 ,             0.0 ,                 0.0 ,                 0.0 ,        0.0 ,1.5044679182836596     ,            0.0 ,            0.0 ,            0.0 ,              0.0 ,                   0.0 ,  0.0 ,0.0 , 875.7592392199606   ,1.0                ,0.0 ,-29.280876871314092 ,-52.81305703052648  ,-0.9815275044630878     ,-26.9775806150295   ,          0.0 ,          0.0 ,-29.239900038254262 ,-52.85403025640974  ,-26.9775806150295   ,-109.07150978123785 , 14.375746283568173  , 36.35717149844121  , 24.89952325728658   ,-24.283292935246678   ,-47.81547603727621  ,-0.9815275044630878     ,-21.97999667896208  ,          0.0 ,          0.0 ,-24.24232143436655   ,-47.85645050251994  ,-21.97999667896208  ,-94.07876447676384  , 14.375746283568173  , 31.35959260705297   , 24.89952325728658   ,-3.164844669864902e-06  ,8.558107556150248e-07   ,-1.6251077421457774e-06 ,      0.0 ,      0.0 ,      0.0 ,1.0615505020691646e-06  ,-3.3705844579253532e-06 ,      0.0 ,-2.309033812105927e-06  ,2.3180928748889434e-06 ,0.31680083443100115  ,0.030993243389357283    ,-9.258286387362357e-08  ,-1.3939193438646244e-10 ,0.0                    ,9.258301937463022e-08  ,0.0 ,162.41164183528508    ,4.997582214632104       ,        0.0 ,        0.0 , 0.0
 0.0 ,0.0 ,           0.0 ,            0.0 ,            0.0 ,            0.0 ,              0.0 ,                   0.0 , 724.0 ,33.10317 ,-2.65445  ,           0.0 ,           0.0 ,       0.0 ,160.4472       ,-18.69917   ,-0.008548772     ,-9.093057e-05    ,                 0.0 ,             0.0 ,             0.0 ,                 0.0 ,                 0.0 ,        0.0 ,1.078068896295762      ,            0.0 ,            0.0 ,            0.0 ,              0.0 ,                   0.0 ,  0.0 ,0.0 , 873.6980747493867   ,1.0                ,0.0 ,-28.5666577280762   ,-52.78652736140391  ,-0.9456988308360474     ,-26.827586450978767 ,          0.0 ,          0.0 ,-28.529738643810767 ,-52.82344644566935  ,-26.827586450978767 ,-108.1807533887379  , 14.564448123940636  , 36.06026063756458  , 25.2263663527498    ,-23.56908376616527    ,-47.78895606693668  ,-0.9456988308360474     ,-21.83001248906783  ,          0.0 ,          0.0 ,-23.532164394998727  ,-47.82587248375841  ,-21.83001248906783  ,-93.18803034476184  , 14.564448123940636  , 31.062686675653644  , 25.2263663527498    ,-2.040629793246533e-06  ,4.418701714693367e-07   ,-1.513203707486898e-06  ,      0.0 ,      0.0 ,      0.0 ,7.335129501600946e-07   ,-2.332272701480739e-06  ,      0.0 ,-1.598759636560203e-06  ,1.6107709262403326e-06 ,0.21283258702585853  ,0.016387695769198223    ,-4.492260423792862e-08  ,2.5128894966677598e-11  ,2.8357075309518797e-08 ,84.57188390049473      ,0.0 ,77.54300489994768     ,2.5200016740419864      ,        0.0 ,        0.0 , 0.0
 0.0 ,0.0 ,           0.0 ,            0.0 ,            0.0 ,            0.0 ,              0.0 ,                   0.0 , 725.0 ,31.159   ,-2.653651 ,           0.0 ,           0.0 ,       0.0 ,160.4465       ,-18.6983    ,-0.008657169     ,-0.0001215476    ,                 0.0 ,             0.0 ,             0.0 ,                 0.0 ,                 0.0 ,        0.0 ,0.5726096006053103     ,            0.0 ,            0.0 ,            0.0 ,              0.0 ,                   0.0 ,  0.0 ,0.0 , 871.6376245687738   ,1.0                ,0.0 ,-27.859769408372824 ,-52.75845659055669  ,-0.9066010687900696     ,-26.67574336064972  ,          0.0 ,          0.0 ,-27.826793645203317 ,-52.79143502213383  ,-26.67574336064972  ,-107.29394204865488 , 14.764731109892466  , 35.76465616688828  , 25.573267101507724  ,-22.862236028624558   ,-47.76091731074006  ,-0.9066010687900696     ,-21.67821026720625  ,          0.0 ,          0.0 ,-22.829260265455048  ,-47.79389811506353  ,-21.67821026720625  ,-92.30137188874207  , 14.764731109892466  , 30.76712278714001   , 25.573267101507724  ,-8.133996678894515e-07  ,1.7687647162281757e-07  ,-1.103962679487008e-07  ,      0.0 ,      0.0 ,      0.0 ,1.7994371220941998e-07  ,-8.164668512150938e-07  ,      0.0 ,-6.365231390056738e-07  ,5.310103720357355e-07  ,0.06339079804744582  ,0.007756526567898202    ,-4.753729324824583e-08  ,-1.2438775449565131e-11 ,3.07066725132515e-08   ,108.17653632329524     ,0.0 ,52.82034397735682     ,1.4309986322047203      ,        0.0 ,        0.0 , 0.0
 0.0 ,0.0 ,           0.0 ,            0.0 ,            0.0 ,            0.0 ,              0.0 ,                   0.0 , 726.0 ,29.21492 ,-2.652909 ,           0.0 ,           0.0 ,       0.0 ,160.4288       ,-18.69579   ,-0.008776813     ,-0.0001538069    ,                 0.0 ,             0.0 ,             0.0 ,                 0.0 ,                 0.0 ,        0.0 ,1.9838906496558875     ,            0.0 ,            0.0 ,            0.0 ,              0.0 ,                   0.0 ,  0.0 ,0.0 , 869.5788475555753   ,1.0                ,0.0 ,-27.191544214668593 ,-52.73655172852     ,-0.911263602778114      ,-26.53594305513893  ,          0.0 ,          0.0 ,-27.15901537464559  ,-52.76908971140342  ,-26.53594305513893  ,-106.46402587749976 , 14.97006212984703   , 35.488014782123216 , 25.928908624620988  ,-22.193992537740982   ,-47.73900119444518  ,-0.911263602778114      ,-21.53839137821132  ,          0.0 ,          0.0 ,-22.161461595123317  ,-47.771529748754986 ,-21.53839137821132  ,-91.47138565976832  , 14.97006212984703   , 30.490461002600938  , 25.928908624620988  ,-4.876558586960207e-07  ,9.842379723290877e-08   ,-7.822405151219662e-07  ,      0.0 ,      0.0 ,      0.0 ,3.260440805821219e-07   ,-7.152759948636069e-07  ,      0.0 ,-3.892319563333784e-07  ,5.345360959957736e-07  ,0.03116468403117904  ,-1.1913308153939132e-08 ,-2.371181187849306e-08  ,0.0                     ,6.288104175236898e-08  ,161.59688201705853     ,0.0 ,0.0                   ,0.0                     ,        0.0 ,        0.0 , 0.0
 0.0 ,0.0 ,           0.0 ,            0.0 ,            0.0 ,            0.0 ,              0.0 ,                   0.0 , 727.0 ,27.27152 ,-2.652185 ,           0.0 ,           0.0 ,       0.0 ,160.3883       ,-18.69102   ,-0.00895411      ,-0.0006670032    ,                 0.0 ,             0.0 ,             0.0 ,                 0.0 ,                 0.0 ,        0.0 ,3.5783197101329995     ,            0.0 ,            0.0 ,            0.0 ,              0.0 ,                   0.0 ,  0.0 ,0.0 , 867.5225533742008   ,1.0                ,0.0 ,-26.55605578511311  ,-52.725846477174606 ,-0.9322123590308448     ,-26.40862886181889  ,          0.0 ,          0.0 ,-26.522693759977226 ,-52.759213257506    ,-26.40862886181889  ,-105.69053477065442 , 15.181427885149306  , 35.230179508698725 , 26.295003535603044  ,-21.558464261543115   ,-47.72825409822197  ,-0.9322123590308448     ,-21.41103705312135  ,          0.0 ,          0.0 ,-21.525096910956623  ,-47.761616408485395 ,-21.41103705312135  ,-90.6977447619852   , 15.181427885149306  , 30.23258505320712   , 26.295003535603044  ,-9.77169832084874e-07   ,7.029075246334639e-08   ,-2.242238214698895e-06  ,      0.0 ,      0.0 ,      0.0 ,8.298704643322577e-07   ,-1.7367491911311712e-06 ,      0.0 ,-9.068787107802002e-07  ,1.313264447542315e-06  ,0.06677815401861033  ,0.007708955552663681    ,-1.443880312419965e-08  ,-2.0871322348793965e-11 ,6.936218113168118e-08  ,110.01755858010117     ,0.0 ,52.70964818820284     ,1.425116533094848       ,        0.0 ,        0.0 , 0.0
 0.0 ,0.0 ,           0.0 ,            0.0 ,            0.0 ,            0.0 ,              0.0 ,                   0.0 , 728.0 ,25.32953 ,-2.651387 ,           0.0 ,           0.0 ,       0.0 ,160.317        ,-18.68308   ,-0.009269681     ,-0.0005331241    ,                 0.0 ,             0.0 ,             0.0 ,                 0.0 ,                 0.0 ,        0.0 ,2.1465684338784192     ,            0.0 ,            0.0 ,            0.0 ,              0.0 ,                   0.0 ,  0.0 ,0.0 , 865.4716436829569   ,1.0                ,0.0 ,-25.89059539476282  ,-52.71096954601346  ,-0.9188738280580018     ,-26.27403130526144  ,          0.0 ,          0.0 ,-25.858836449148207 ,-52.742727922522825 ,-26.27403130526144  ,-104.87560027611742 , 15.407746059154608  , 34.95853040141602  , 26.686997672059242  ,-20.893021068772228   ,-47.71339510620183  ,-0.9188738280580018     ,-21.27645715000243  ,          0.0 ,          0.0 ,-20.86126235079972   ,-47.74515405181644  ,-21.27645715000243  ,-89.88287503928689  , 15.407746059154608  , 29.96096128794667   , 26.686997672059242  ,-6.696947567566315e-07  ,-2.2068865590500792e-07 ,-1.4255408993119194e-06 ,      0.0 ,      0.0 ,      0.0 ,6.986843741254685e-07   ,-1.5890678721528955e-06 ,      0.0 ,-8.903831605721561e-07  ,1.1760238034646775e-06 ,0.15174419786336357  ,0.014658490042011647    ,2.9715334636620185e-08  ,-2.7941156208981436e-08 ,6.32155217760819e-08   ,77.51817159985731      ,0.0 ,84.62835883901633     ,2.478010777706975       ,        0.0 ,        0.0 , 0.0
 0.0 ,0.0 ,           0.0 ,            0.0 ,            0.0 ,            0.0 ,              0.0 ,                   0.0 , 729.0 ,23.39006 ,-2.65032  ,           0.0 ,           0.0 ,       0.0 ,160.2045       ,-18.67076   ,-0.009725961     ,-0.0004946337    ,                 0.0 ,             0.0 ,             0.0 ,                 0.0 ,                 0.0 ,        0.0 ,0.28399629522137204    ,            0.0 ,            0.0 ,            0.0 ,              0.0 ,                   0.0 ,  0.0 ,0.0 , 863.4309928268938   ,1.0                ,0.0 ,-25.17657558582268  ,-52.67411757647286  ,-0.9019765273996322     ,-26.11860064532283  ,          0.0 ,          0.0 ,-25.14667639164291  ,-52.70401677065264  ,-26.11860064532283  ,-103.96927444172516 , 15.649161696725358  , 34.65643187928     , 27.105137202576984  ,-20.17904174993401    ,-47.67658283179605  ,-0.9019765273996322     ,-21.121066752634896 ,          0.0 ,          0.0 ,-20.14914252735461   ,-47.70648414019374  ,-21.121066752634896 ,-88.97670083581696  , 15.649161696725358  , 29.658897986592066  , 27.105137202576984  ,7.577594829022554e-07   ,-6.988737030769895e-07  ,-9.589773899813875e-08  ,      0.0 ,      0.0 ,      0.0 ,7.593362303333244e-07   ,-7.004504505080586e-07  ,      0.0 ,5.8885723026006786e-08  ,7.300911438403132e-07  ,0.22109542100988375  ,0.016635963432170997    ,6.546111534980603e-08   ,-6.666622021209153e-08  ,8.938428165775379e-08  ,84.55702397165325      ,0.0 ,76.48048980589213     ,2.521538114283431       ,        0.0 ,        0.0 , 0.0
 0.0 ,0.0 ,           0.0 ,            0.0 ,            0.0 ,            0.0 ,              0.0 ,                   0.0 , 730.0 ,21.45491 ,-2.648551 ,           0.0 ,           0.0 ,       0.0 ,160.0382       ,-18.65237   ,-0.01000217      ,-0.0004614038    ,                 0.0 ,             0.0 ,             0.0 ,                 0.0 ,                 0.0 ,        0.0 ,1.556001402750426      ,            0.0 ,            0.0 ,            0.0 ,              0.0 ,                   0.0 ,  0.0 ,0.0 , 861.4111564569777   ,1.0                ,0.0 ,-24.51633038509622  ,-52.6482210694504   ,-0.9121566457962185     ,-25.980887104062433 ,          0.0 ,          0.0 ,-24.486299994798657 ,-52.67825231017492  ,-25.980887104062433 ,-103.14543084307975 , 15.883427502820531  , 34.38181482126183  , 27.510898400667347  ,-19.518778360284898   ,-47.65066978167577  ,-0.9121566457962185     ,-20.98333496586085  ,          0.0 ,          0.0 ,-19.4887479132922    ,-47.680705226722814 ,-20.98333496586085  ,-88.1527976083939   , 15.883427502820531  , 29.384262683060246  , 27.510898400667347  ,8.624185283988632e-07   ,-1.1622555464303166e-06 ,-5.71563957176321e-07   ,      0.0 ,      0.0 ,      0.0 ,1.0107381488763738e-06  ,-1.3105751035930067e-06 ,      0.0 ,-2.998368762936285e-07  ,1.165526227461461e-06  ,0.0834012133309495   ,0.007663409465309661    ,-1.0887551278818307e-07 ,-5.185296903511112e-11  ,2.103549193533949e-07  ,109.10613782856392     ,0.0 ,52.41169954129367     ,1.416860340070001       ,        0.0 ,        0.0 , 0.0
 0.0 ,0.0 ,           0.0 ,            0.0 ,            0.0 ,            0.0 ,              0.0 ,                   0.0 , 731.0 ,19.52729 ,-2.645139 ,           0.0 ,           0.0 ,       0.0 ,159.8051       ,-18.62565   ,-0.01014969      ,-0.0003980613    ,                 0.0 ,             0.0 ,             0.0 ,                 0.0 ,                 0.0 ,        0.0 ,2.9852419128448036     ,            0.0 ,            0.0 ,            0.0 ,              0.0 ,                   0.0 ,  0.0 ,0.0 , 859.4329422476626   ,1.0                ,0.0 ,-23.82606847896541  ,-52.57292800280575  ,-0.932839349175944      ,-25.824857302158843 ,          0.0 ,          0.0 ,-23.79527851835737  ,-52.603717114341435 ,-25.824857302158843 ,-102.22385285283954 , 16.10960586306758   , 34.07461792797667  , 27.902658307610203  ,-18.828467018658195   ,-47.57532835544275  ,-0.932839349175944      ,-20.827257937819958 ,          0.0 ,          0.0 ,-18.79767705805015   ,-47.6061183160508   ,-20.827257937819958 ,-87.23106793446257  , 16.10960586306758   , 29.07701856363779   , 27.902658307610203  ,1.7577211828684505e-06  ,-2.123065436016326e-06  ,-1.764784809925357e-06  ,      0.0 ,      0.0 ,      0.0 ,2.177309168755433e-06   ,-2.542653269689595e-06  ,      0.0 ,-3.6534447849867043e-07 ,2.3726285336527473e-06 ,0.11532341548721578  ,0.006777827713560281    ,-1.8256019704762902e-08 ,-4.968362992832279e-10  ,7.488407833044506e-08  ,130.5399046097205      ,0.0 ,32.39044492988311     ,1.0474360727821246      ,        0.0 ,        0.0 , 0.0
 0.0 ,0.0 ,           0.0 ,            0.0 ,            0.0 ,            0.0 ,              0.0 ,                   0.0 , 732.0 ,17.61318 ,-2.638049 ,           0.0 ,           0.0 ,       0.0 ,159.497        ,-18.58775   ,-0.0101028       ,-0.0004039971    ,                 0.0 ,             0.0 ,             0.0 ,                 0.0 ,                 0.0 ,        0.0 ,3.9999999999999996     ,            0.0 ,            0.0 ,            0.0 ,              0.0 ,                   0.0 ,  0.0 ,0.0 , 652.3215798466216   ,0.9999999999999999 ,0.0 ,-23.246045108883706 ,-52.37617898774847  ,-0.9638443226813863     ,-25.63628928806921  ,          0.0 ,          0.0 ,-23.214166484611038 ,-52.40805759407052  ,-25.63628928806921  ,-101.25849829635224 , 16.2083590468698    , 33.75283943114059  , 28.07370617808138   ,-18.248409896474477   ,-47.378548800799926 ,-0.9638443226813863     ,-20.638654198383797 ,          0.0 ,          0.0 ,-18.216531272201813  ,-47.4104274250726   ,-20.638654198383797 ,-86.26562296453018  , 16.2083590468698    , 28.755204341455183  , 28.07370617808138   ,3.410001936998517e-06   ,-2.4539997220453025e-06 ,-1.7431138767345555e-06 ,      0.0 ,      0.0 ,      0.0 ,3.583725366111075e-06   ,-2.6277231511578603e-06 ,      0.0 ,9.560020107036774e-07   ,3.1181640517202755e-06 ,0.3951038586552071   ,0.03055473904923405     ,-6.864807980585366e-08  ,-1.9225507871142007e-09 ,2.796371678738868e-10  ,1.1063392142630442     ,0.0 ,162.06229048214976    ,4.9677269278350344      ,        0.0 ,        0.0 , 0.0
 0.0 ,0.0 ,           0.0 ,            0.0 ,            0.0 ,            0.0 ,              0.0 ,                   0.0 , 733.0 ,15.72464 ,-2.622864 ,           0.0 ,           0.0 ,       0.0 ,159.1265       ,-18.53552   ,-0.0099539       ,-0.0002232609    ,                 0.0 ,             0.0 ,             0.0 ,                 0.0 ,                 0.0 ,        0.0 ,1.980004866272771      ,            0.0 ,            0.0 ,            0.0 ,              0.0 ,                   0.0 ,  0.0 ,0.0 , 635.3290765554018   ,1.0                ,0.0 ,-22.61015847368595  ,-52.147547488377704 ,-0.9314497464214262     ,-25.411020510611195 ,          0.0 ,          0.0 ,-22.580800224051227 ,-52.17690583377233  ,-25.411020510611195 ,-100.16871685149874 , 16.334803447841562  , 33.38957717281564  , 28.29271094363167   ,-17.6125965271596     ,-47.14998563761126  ,-0.9314497464214262     ,-20.41345361407268  ,          0.0 ,          0.0 ,-17.583238277524877  ,-47.179343887245984 ,-20.41345361407268  ,-85.17605064152731  , 16.334803447841562  , 28.392010276277126  , 28.29271094363167   ,2.0455925274680565e-06  ,-1.497384620133382e-06  ,-5.082509141320735e-07  ,      0.0 ,      0.0 ,      0.0 ,2.0637268970370326e-06  ,-1.5155189897023575e-06 ,      0.0 ,5.482079073346747e-07   ,1.796606420533039e-06  ,0.4039287564193345   ,0.031150059933154797    ,6.163961951561497e-07   ,-3.3506074932191805e-07 ,0.0                    ,7.544098427594196e-07  ,0.0 ,161.1210273641418     ,4.997562926952793       ,        0.0 ,        0.0 , 0.0
 0.0 ,0.0 ,           0.0 ,            0.0 ,            0.0 ,            0.0 ,              0.0 ,                   0.0 , 734.0 ,13.8874  ,-2.590094 ,           0.0 ,           0.0 ,       0.0 ,158.766        ,-18.46669   ,-0.009246671     ,-0.0006899797    ,                 0.0 ,             0.0 ,             0.0 ,                 0.0 ,                 0.0 ,        0.0 ,1.5178193667506197     ,            0.0 ,            0.0 ,            0.0 ,              0.0 ,                   0.0 ,  0.0 ,0.0 , 635.6057628801254   ,1.0                ,0.0 ,-21.77246712064469  ,-51.30644605477166  ,-0.9219888358569113     ,-24.912004549201743 ,          0.0 ,          0.0 ,-21.743710197173474 ,-51.33520297824287  ,-24.912004549201743 ,-97.99090784341386  , 16.256303087662204  , 32.66363768123935  , 28.15674276941092   ,-16.774899858547254   ,-46.30887769120248  ,-0.9219888358569113     ,-19.91443150473253  ,          0.0 ,          0.0 ,-16.746141251964943  ,-46.3376346146737   ,-19.91443150473253  ,-82.99822239631902  , 16.256303087662204  , 27.666069317670182  , 28.15674276941092   ,-3.9782839878167125e-07 ,-1.2032693490793423e-06 ,-6.785959980567491e-08  ,      0.0 ,      0.0 ,      0.0 ,-3.962046568573154e-07  ,-1.2048931732667635e-06 ,      0.0 ,-1.6010979591961446e-06 ,6.145300974416227e-07  ,0.24911268384587779  ,0.01748724040655425     ,6.261921640691213e-07   ,-3.287217975539212e-07  ,5.615273221241486e-08  ,80.36590542497932      ,0.0 ,80.94000807341365     ,2.658110807653312       ,        0.0 ,        0.0 , 0.0
 0.0 ,0.0 ,           0.0 ,            0.0 ,            0.0 ,            0.0 ,              0.0 ,                   0.0 , 735.0 ,12.16077 ,-2.520551 ,           0.0 ,           0.0 ,       0.0 ,158.6254       ,-18.38309   ,-0.01339241      ,0.001307346      ,                 0.0 ,             0.0 ,             0.0 ,                 0.0 ,                 0.0 ,        0.0 ,3.455890255387585      ,            0.0 ,            0.0 ,            0.0 ,              0.0 ,                   0.0 ,  0.0 ,0.0 , 633.1924365414642   ,1.0                ,0.0 ,-20.566791897524386 ,-50.53778012812346  ,-0.8610010325016365     ,-24.36117066958068  ,          0.0 ,          0.0 ,-20.54193774722992  ,-50.56263427841792  ,-24.36117066958068  ,-95.4657250429805   , 16.345656279179174  , 31.821910995636536 , 28.311506490203428  ,-15.569128758415143   ,-45.54011515250822  ,-0.8610010325016365     ,-19.363500836230184 ,          0.0 ,          0.0 ,-15.544272256673048  ,-45.56496930280268  ,-19.363500836230184 ,-80.47274261896645  , 16.345656279179174  , 26.824246020021302  , 28.311506490203428  ,1.8389959717229193e-06  ,-2.8395123215945407e-06 ,-5.167894369279405e-07  ,      0.0 ,      0.0 ,      0.0 ,1.8629291933586883e-06  ,-2.86344562580096e-06   ,      0.0 ,-1.0005166073424389e-06 ,2.5968022120190953e-06 ,0.24331551713066055  ,0.015522867741493605    ,-3.993899213777599e-08  ,-3.919370223220971e-09  ,6.17731194700376e-08   ,88.40981443297716      ,0.0 ,75.81476108466309     ,2.4240483594945497      ,        0.0 ,        0.0 , 0.0
 0.0 ,0.0 ,           0.0 ,            0.0 ,            0.0 ,            0.0 ,              0.0 ,                   0.0 , 736.0 ,8.829818 ,-3.111688 ,           0.0 ,           0.0 ,       0.0 ,150.8498       ,-18.19667   ,-7.288996e-06    ,-0.000930149     ,                 0.0 ,             0.0 ,             0.0 ,                 0.0 ,                 0.0 ,        0.0 ,1.9794550831521112     ,            0.0 ,            0.0 ,            0.0 ,              0.0 ,                   0.0 ,  0.0 ,0.0 , 658.5252035125654   ,1.0                ,0.0 ,-24.798803355806854 ,-60.71494651116018  ,-1.1015882060523332     ,-29.308062304853834 ,          0.0 ,          0.0 ,-24.760458285768877 ,-60.7532963357037   ,-29.308062304853834 ,-114.82182643533748 , 19.605734511832623  , 38.27393722694398  , 33.95813182377452   ,-19.801304795362636   ,-55.71744798153335  ,-1.1015882060523332     ,-24.310563672502408 ,          0.0 ,          0.0 ,-19.762949807504327  ,-55.75579305157132  ,-24.310563672502408 ,-99.82929231942373  , 19.605734511832623  , 33.2764339428116    , 33.95813182377452   ,3.049753524652132e-06   ,-3.1102536433081575e-06 ,-2.546745417840885e-07  ,      0.0 ,      0.0 ,      0.0 ,3.0526957582503707e-06  ,-3.1131958769063964e-06 ,      0.0 ,-6.050028846969562e-08  ,3.0840557821077965e-06 ,0.2456460842664014   ,0.015692658875460713    ,-5.238979982898619e-08  ,-4.499528677380362e-09  ,5.744099483105876e-08  ,74.17558695541936      ,0.0 ,84.22962216065558     ,2.5701877015195014      ,        0.0 ,        0.0 , 0.0
 0.0 ,0.0 ,           0.0 ,            0.0 ,            0.0 ,            0.0 ,              0.0 ,                   0.0 , 737.0 ,7.258808 ,-2.597702 ,           0.0 ,           0.0 ,       0.0 ,154.9007       ,-18.08777   ,-0.005925592     ,-0.001849029     ,                 0.0 ,             0.0 ,             0.0 ,                 0.0 ,                 0.0 ,        0.0 ,0.9224521963865662     ,            0.0 ,            0.0 ,            0.0 ,              0.0 ,                   0.0 ,  0.0 ,0.0 , 631.7288412158441   ,1.0                ,0.0 ,-20.33165293250059  ,-51.710795727014556 ,-0.555107488330409      ,-24.808301188119437 ,          0.0 ,          0.0 ,-20.31957552752744  ,-51.72287710043667  ,-24.808301188119437 ,-96.85076175298147  , 16.99842924186354   , 32.28358259484416  , 29.44214161956765   ,-15.3341403435585     ,-46.71328475439418  ,-0.555107488330409      ,-19.81078482776004  ,          0.0 ,          0.0 ,-15.322057248776566  ,-46.72536215936732  ,-19.81078482776004  ,-81.85819502442655  , 16.99842924186354   , 27.28606765377483   , 29.44214161956765   ,1.4221131838568394e-06  ,-1.3503028486588849e-06 ,-8.36363596056071e-08   ,      0.0 ,      0.0 ,      0.0 ,1.4228161412889826e-06  ,-1.351005806091028e-06  ,      0.0 ,7.181044886907146e-08   ,1.3873121973371982e-06 ,0.058314197816536496 ,0.0019653102935083      ,-1.1538948313849611e-07 ,-5.632860743696268e-10  ,8.529689343220732e-07  ,148.18543423041993     ,0.0 ,10.544520685249953    ,0.3217561314943987      ,        0.0 ,        0.0 , 0.0
 0.0 ,0.0 ,           0.0 ,            0.0 ,            0.0 ,            0.0 ,              0.0 ,                   0.0 , 738.0 ,5.526282 ,-2.563372 ,           0.0 ,           0.0 ,       0.0 ,154.3316       ,-17.99653   ,-0.01081606      ,0.000309346      ,                 0.0 ,             0.0 ,             0.0 ,                 0.0 ,                 0.0 ,        0.0 ,0.07676743991994656    ,            0.0 ,            0.0 ,            0.0 ,              0.0 ,                   0.0 ,  0.0 ,0.0 , 648.9898895665433   ,0.9999999999999999 ,0.0 ,-19.10842415553773  ,-50.656611431551696 ,-0.44539843281446334    ,-24.116168516944605 ,          0.0 ,          0.0 ,-19.101704612614213 ,-50.66332601207088  ,-24.116168516944605 ,-93.88118878692337  , 16.97340469866707   , 31.293733204682027 , 29.39879986800134   ,-14.111060586654148   ,-45.65924933965735  ,-0.44539843281446334    ,-19.118801720113503 ,          0.0 ,          0.0 ,-14.104345233012404  ,-45.66596379223081  ,-19.118801720113503 ,-78.88910283523971  , 16.97340469866707   , 26.296371010431102  , 29.39879986800134   ,-3.2919976547697564e-08 ,-1.1292633711445322e-07 ,7.085841976698851e-10   ,      0.0 ,      0.0 ,      0.0 ,-3.291841560975252e-08  ,-1.1292789805239826e-07 ,      0.0 ,-1.458463136621508e-07  ,5.807730633813004e-08  ,0.040363100978595266 ,0.0006941861987631246   ,-1.8324113028055175e-07 ,-1.079474056744186e-10  ,1.4011170335030178e-06 ,149.9563894339582      ,0.0 ,4.724071216244384     ,0.12789882829411983     ,        0.0 ,        0.0 , 0.0
 0.0 ,0.0 ,           0.0 ,            0.0 ,            0.0 ,            0.0 ,              0.0 ,                   0.0 , 739.0 ,3.727612 ,-2.603236 ,           0.0 ,           0.0 ,       0.0 ,153.3647       ,-17.9397    ,-0.008195809     ,0.0001289026     ,                 0.0 ,             0.0 ,             0.0 ,                 0.0 ,                 0.0 ,        0.0 ,0.8214388639969115     ,            0.0 ,            0.0 ,            0.0 ,              0.0 ,                   0.0 ,  0.0 ,0.0 , 813.9677264529848   ,1.0                ,0.0 ,-18.802684605697415 ,-51.74288542856258  ,-0.4654302470613565     ,-24.479546843914783 ,          0.0 ,          0.0 ,-18.795575564545963 ,-51.74998817775183  ,-24.479546843914783 ,-95.02509878478284  , 17.70194886781953   , 31.675038813358015 , 30.660677188210116  ,-13.805322876864594   ,-46.74552551845817  ,-0.4654302470613565     ,-19.482187508817585 ,          0.0 ,          0.0 ,-13.79821903242352   ,-46.75262936289925  ,-19.482187508817585 ,-80.03301694888503  , 17.70194886781953   , 26.677679450879523  , 30.660677188210116  ,-4.346471246678218e-07  ,-1.1296958454817576e-06 ,-4.6991614991943844e-08 ,      0.0 ,      0.0 ,      0.0 ,-4.338536147252007e-07  ,-1.1304893554243788e-06 ,      0.0 ,-1.5643429701495797e-06 ,5.703121340641864e-07  ,0.13430828228343764  ,0.007594207487554448    ,3.979323440335417e-10   ,-4.54894981461759e-09   ,6.990254951909524e-07  ,124.36913887771645     ,0.0 ,31.910146446362457    ,1.1003783828326603      ,        0.0 ,        0.0 , 0.0
 0.0 ,0.0 ,           0.0 ,            0.0 ,            0.0 ,            0.0 ,              0.0 ,                   0.0 , 740.0 ,3.663696 ,-4.227838 ,           0.0 ,           0.0 ,       0.0 ,137.1365       ,-17.94149   ,-0.004782624     ,-0.0004047544    ,                 0.0 ,             0.0 ,             0.0 ,                 0.0 ,                 0.0 ,        0.0 ,1.0206173218387877     ,            0.0 ,            0.0 ,            0.0 ,              0.0 ,                   0.0 ,  0.0 ,0.0 , 632.2472859255478   ,1.0                ,0.0 ,-34.149749599952685 ,-81.89670311918664  ,-0.45646362057446155    ,-39.640926002867324 ,          0.0 ,          0.0 ,-34.14524575094105  ,-81.9012069681983   ,-39.640926002867324 ,-155.6873523477233  , 26.134931338471347  , 51.89579447376232  , 45.2670283562512    ,-29.152833886889624   ,-76.89979230303697  ,-0.45646362057446155    ,-34.644010487437356 ,          0.0 ,          0.0 ,-29.148330037877994  ,-76.90429615204862  ,-34.644010487437356 ,-140.69661360184904 , 26.134931338471347  , 46.89887895833235   , 45.2670283562512    ,1.4659215354903922e-06  ,-1.2715765965438818e-06 ,-1.1140905882751286e-08 ,      0.0 ,      0.0 ,      0.0 ,1.465942329440034e-06   ,-1.2715973501128923e-06 ,      0.0 ,1.943449040678969e-07   ,1.3699189410587311e-06 ,0.4934716757137201   ,0.03366256208504527     ,1.7254682542671626e-07  ,-3.0443995323230876e-08 ,2.9223741142966975e-09 ,5.60891025397252       ,0.0 ,136.736340421453      ,4.795142843279638       ,        0.0 ,        0.0 , 0.0
 0.0 ,0.0 ,           0.0 ,            0.0 ,            0.0 ,            0.0 ,              0.0 ,                   0.0 , 741.0 ,3.814891 ,-5.868715 ,           0.0 ,           0.0 ,       0.0 ,120.8418       ,-17.9529    ,-0.004201475     ,0.0004697126     ,                 0.0 ,             0.0 ,             0.0 ,                 0.0 ,                 0.0 ,        0.0 ,2.4990946980896904     ,            0.0 ,            0.0 ,            0.0 ,              0.0 ,                   0.0 ,  0.0 ,0.0 , 613.8986657953416   ,1.0                ,0.0 ,-49.19282381082958  ,-111.35515671791822 ,-0.8939920735947371     ,-54.493536094182375 ,          0.0 ,          0.0 ,-49.17858353356421  ,-111.36941697515422 ,-54.493536094182375 ,-215.04157154105502 , 34.47696203279833   , 71.68051383225053  , 59.715846667064746  ,-44.19650566003524    ,-106.35887853515646 ,-0.8939920735947371     ,-49.497217951479385 ,          0.0 ,          0.0 ,-44.18226539086122   ,-106.37308880200916 ,-49.497217951479385 ,-200.0525771167927  , 34.47696203279833   , 66.68419572191294   , 59.715846667064746  ,1.0648271061268968e-06  ,-1.911230609824412e-06  ,1.7837046938239184e-07  ,      0.0 ,      0.0 ,      0.0 ,1.0818738042102268e-06  ,-1.928277009391379e-06  ,      0.0 ,-8.464034547013078e-07  ,1.671884607757982e-06  ,0.038708467577223536 ,3.828165898597201e-05   ,-8.225631570104082e-08  ,-6.502414108351212e-11  ,1.5175605464633716e-07 ,130.89422899331024     ,0.0 ,0.08513345911861624   ,0.004041114546135724    ,        0.0 ,        0.0 , 0.0
 0.0 ,0.0 ,           0.0 ,            0.0 ,            0.0 ,            0.0 ,              0.0 ,                   0.0 , 742.0 ,5.785714 ,-5.677064 ,           0.0 ,           0.0 ,       0.0 ,123.7339       ,-18.05046   ,-0.0007995911    ,-0.0009443702    ,                 0.0 ,             0.0 ,             0.0 ,                 0.0 ,                 0.0 ,        0.0 ,1.431125216577826      ,            0.0 ,            0.0 ,            0.0 ,              0.0 ,                   0.0 ,  0.0 ,0.0 , 636.0436503514738   ,1.0                ,0.0 ,-47.78096347640141  ,-107.87549236868567 ,-1.0978996612414258     ,-52.785050624479226 ,          0.0 ,          0.0 ,-47.76064761436169  ,-107.89583112567507 ,-52.785050624479226 ,-208.44151657071782 , 33.36525946285602   , 69.48050741982189  , 57.79031978963656   ,-42.78476683236627    ,-102.87932657042677 ,-1.0978996612414258     ,-47.788853980444074 ,          0.0 ,          0.0 ,-42.764445976794335  ,-102.89961735071839 ,-47.788853980444074 ,-193.45293934419462 , 33.36525946285602   , 64.48431077578674   , 57.79031978963656   ,-9.173695862543971e-08  ,-7.724425043494512e-07  ,1.0810964321133724e-07  ,      0.0 ,      0.0 ,      0.0 ,-7.668109962782819e-08  ,-7.874985352797252e-07  ,      0.0 ,-8.641795560227347e-07  ,4.979810578973288e-07  ,0.3148145579042005   ,0.021516206224044522    ,1.6328140504330462e-06  ,-5.30188809870697e-07   ,9.941537685967611e-08  ,52.9162330844871       ,0.0 ,75.52098407622509     ,2.84881062706167        ,        0.0 ,        0.0 , 0.0
 0.0 ,0.0 ,           0.0 ,            0.0 ,            0.0 ,            0.0 ,              0.0 ,                   0.0 , 743.0 ,7.87987  ,-5.167854 ,           0.0 ,           0.0 ,       0.0 ,130.1693       ,-18.18478   ,-0.01118058      ,2.986419e-05     ,                 0.0 ,             0.0 ,             0.0 ,                 0.0 ,                 0.0 ,        0.0 ,1.1525534514936209     ,            0.0 ,            0.0 ,            0.0 ,              0.0 ,                   0.0 ,  0.0 ,0.0 , 643.827813686344    ,1.0                ,0.0 ,-43.16696086661817  ,-98.09576645968345  ,-1.2746610542642876     ,-47.957263109136825 ,          0.0 ,          0.0 ,-43.136886927474855 ,-98.12584575208922  ,-47.957263109136825 ,-189.2199626674979  , 30.453262033471518  , 63.073329909637835 , 52.7465968714681    ,-38.17036198285017    ,-93.099150378923    ,-1.2746610542642876     ,-42.96066422536884  ,          0.0 ,          0.0 ,-38.14028612984288   ,-93.1292277574648   ,-42.96066422536884  ,-174.23021984392187 , 30.453262033471518  , 58.07673102586983   , 52.7465968714681    ,3.747470321870164e-06   ,-2.500949245228962e-06  ,-5.523142782587805e-07  ,      0.0 ,      0.0 ,      0.0 ,3.759940924226556e-06   ,-2.5134198475853536e-06 ,      0.0 ,1.246520577573464e-06   ,3.1608530643004973e-06 ,0.5202358696960668   ,0.03680262840033492     ,5.640804232294541e-07   ,-2.2520434220477022e-07 ,0.0                    ,7.673465738626459e-07  ,0.0 ,136.35352349493786    ,4.996598305373734       ,        0.0 ,        0.0 , 0.0
 0.0 ,0.0 ,           0.0 ,            0.0 ,            0.0 ,            0.0 ,              0.0 ,                   0.0 , 744.0 ,9.911852 ,-5.58588  ,           0.0 ,           0.0 ,       0.0 ,127.557        ,-18.34159   ,-0.009626197     ,-0.003141745     ,                 0.0 ,             0.0 ,             0.0 ,                 0.0 ,                 0.0 ,        0.0 ,1.0403336598895174     ,            0.0 ,            0.0 ,            0.0 ,              0.0 ,                   0.0 ,  0.0 ,0.0 , 637.1385127060366   ,1.0                ,0.0 ,-47.32928791784403  ,-105.21123506711803 ,-1.7162942414508535     ,-51.648673684877224 ,          0.0 ,          0.0 ,-47.27730197202723  ,-105.26321650721289 ,-51.648673684877224 ,-204.18918733420014 , 32.294211801710226  , 68.0630702574082   , 55.93522223390147   ,-42.33283788417482    ,-100.21478792582435 ,-1.7162942414508535     ,-46.65222365120802  ,          0.0 ,          0.0 ,-42.28085193835803   ,-100.26676936591922 ,-46.65222365120802  ,-189.19987741507552 , 32.294211801710226  , 63.066620223738994  , 55.93522223390147   ,5.43837646120888e-06    ,-3.3544018202832316e-06 ,-1.6255396405704688e-06 ,      0.0 ,      0.0 ,      0.0 ,5.531219895078951e-06   ,-3.4472447632474493e-06 ,      0.0 ,2.0839746590376463e-06  ,4.530061871365564e-06  ,0.2776236523162977   ,0.017706272474529782    ,-4.498309858544039e-08  ,-7.392934165558874e-09  ,6.29145921319608e-08   ,60.65141801337296      ,0.0 ,73.25733849138311     ,2.543928030794968       ,        0.0 ,        0.0 , 0.0
 0.0 ,0.0 ,           0.0 ,            0.0 ,            0.0 ,            0.0 ,              0.0 ,                   0.0 , 745.0 ,11.83936 ,-5.83573  ,           0.0 ,           0.0 ,       0.0 ,126.2106       ,-18.45679   ,-0.009696054     ,-0.0003293727    ,                 0.0 ,             0.0 ,             0.0 ,                 0.0 ,                 0.0 ,        0.0 ,2.9425160872791625     ,            0.0 ,            0.0 ,            0.0 ,              0.0 ,                   0.0 ,  0.0 ,0.0 , 639.475537254247    ,1.0                ,0.0 ,-50.33885200730704  ,-110.51166283248462 ,-2.098315118799288      ,-54.34526669865045  ,          0.0 ,          0.0 ,-50.26545320631266  ,-110.58506606752428 ,-54.34526669865045  ,-215.19581076565123 , 33.71291731887418   , 71.73193536603884  , 58.39248576915121   ,-45.342535294933995   ,-105.51538466462128 ,-2.098315118799288      ,-49.348950094137706 ,          0.0 ,          0.0 ,-45.26913171854462   ,-105.58874014571097 ,-49.348950094137706 ,-200.20683788346656 , 33.71291731887418   , 66.73561387827081   , 58.39248576915121   ,3.3901752084132657e-06  ,-2.7372744373851628e-06 ,-2.079762481989717e-06  ,      0.0 ,      0.0 ,      0.0 ,3.6112253353421818e-06  ,-2.958325018504638e-06  ,      0.0 ,6.529002690835939e-07   ,3.299088080978412e-06  ,0.5060811764405219   ,0.036891820416148025    ,-1.5608901491991011e-07 ,-1.7010164812913806e-08 ,4.374744719226328e-09  ,4.217375832158608      ,0.0 ,127.0390213618038     ,4.82578142591446        ,        0.0 ,        0.0 , 0.0
 0.0 ,0.0 ,           0.0 ,            0.0 ,            0.0 ,            0.0 ,              0.0 ,                   0.0 , 746.0 ,13.73633 ,-5.968335 ,           0.0 ,           0.0 ,       0.0 ,125.6812       ,-18.53646   ,-0.01395669      ,-0.0004660665    ,                 0.0 ,             0.0 ,             0.0 ,                 0.0 ,                 0.0 ,        0.0 ,1.515783857414866      ,            0.0 ,            0.0 ,            0.0 ,              0.0 ,                   0.0 ,  0.0 ,0.0 , 641.3410218002771   ,1.0                ,0.0 ,-52.441920966329846 ,-112.9298941419789  ,-1.7936622212388018     ,-55.71204664484566  ,          0.0 ,          0.0 ,-52.38870107669507  ,-112.98308473683255 ,-55.71204664484566  ,-221.08384316955284 , 34.067466527334425  , 73.69461589669214  , 59.006587175991896  ,-47.44582599923177    ,-107.93376582298238 ,-1.7936622212388018     ,-50.71595154790033  ,          0.0 ,          0.0 ,-47.39260101370172   ,-107.98700416041086 ,-50.71595154790033  ,-206.0955424671444  , 34.067466527334425  , 68.69851583369879   , 59.006587175991896  ,-5.539734515987421e-07  ,-7.431652480483538e-07  ,-5.260031219748966e-07  ,      0.0 ,      0.0 ,      0.0 ,-3.6124978669275797e-07 ,-9.358885653309759e-07  ,      0.0 ,-1.2971387009455683e-06 ,4.8439230979442e-07    ,0.27784723498566916  ,0.018420783081208404    ,-8.795313731773788e-07  ,-1.1739835106473352e-08 ,1.2292236581368565e-06 ,57.39141363834575      ,0.0 ,70.47365625994944     ,2.546281906712338       ,        0.0 ,        0.0 , 0.0
 0.0 ,0.0 ,           0.0 ,            0.0 ,            0.0 ,            0.0 ,              0.0 ,                   0.0 , 747.0 ,15.62989 ,-6.039564 ,           0.0 ,           0.0 ,       0.0 ,125.5174       ,-18.5913    ,-0.01280372      ,-0.0005318499    ,                 0.0 ,             0.0 ,             0.0 ,                 0.0 ,                 0.0 ,        0.0 ,1.9924905503364587     ,            0.0 ,            0.0 ,            0.0 ,              0.0 ,                   0.0 ,  0.0 ,0.0 , 642.9910638427228   ,1.0                ,0.0 ,-53.70702515531156  ,-113.98049149216621 ,-1.8793022162681912     ,-56.39824638878326  ,          0.0 ,          0.0 ,-53.648365764752654 ,-114.03916054951029 ,-56.39824638878326  ,-224.08577784263682 , 34.10219939281272   , 74.69525430787311  , 59.06674320514596   ,-48.7108311425461     ,-108.9842773644038  ,-1.8793022162681912     ,-51.40205237601779  ,          0.0 ,          0.0 ,-48.6521717519872    ,-109.04295179604274 ,-51.40205237601779  ,-209.09718084777566 , 34.10219939281272   , 69.69906029510763   , 59.06674320514596   ,1.2235669142687048e-06  ,-1.7281143305902281e-06 ,-3.059606150487089e-06  ,      0.0 ,      0.0 ,      0.0 ,1.940454422049381e-06   ,-2.4450016894619938e-06 ,      0.0 ,-5.045470671077962e-07  ,2.198772025971338e-06  ,0.5066434745423177   ,0.03875713026383434     ,-2.122970634357151e-07  ,-1.1291849140106948e-08 ,9.411292885329743e-09  ,0.4394055161148069     ,0.0 ,128.565203191359      ,4.977437017308019       ,        0.0 ,        0.0 , 0.0
 0.0 ,0.0 ,           0.0 ,            0.0 ,            0.0 ,            0.0 ,              0.0 ,                   0.0 , 748.0 ,17.52954 ,-6.082003 ,           0.0 ,           0.0 ,       0.0 ,125.4722       ,-18.62922   ,-0.01189607      ,-0.0006379619    ,                 0.0 ,             0.0 ,             0.0 ,                 0.0 ,                 0.0 ,        0.0 ,1.9979440458258877     ,            0.0 ,            0.0 ,            0.0 ,              0.0 ,                   0.0 ,  0.0 ,0.0 , 644.5438691914923   ,1.0                ,0.0 ,-54.67099302570881  ,-114.56212912118923 ,-1.9783854880974099     ,-56.82236066842589  ,          0.0 ,          0.0 ,-54.6056985039391   ,-114.62744362341633 ,-56.82236066842589  ,-226.05554276708637 , 34.033556166509605  , 75.35183425053715  , 58.947844420474105  ,-49.674831944763426   ,-109.56597803617612 ,-1.9783854880974099     ,-51.8261995874805   ,          0.0 ,          0.0 ,-49.60953742299371   ,-109.63128752863192 ,-51.8261995874805   ,-211.0669895323856  , 34.033556166509605  , 70.35567817936307   , 58.947844420474105  ,4.959155660627712e-07   ,-1.2913487041168817e-06 ,-3.1853851821991445e-06 ,      0.0 ,      0.0 ,      0.0 ,2.2604286914409247e-06  ,-3.055862330441658e-06  ,      0.0 ,-7.954336390109031e-07  ,2.7633746118544144e-06 ,0.2743172685452369   ,0.020910844634613054    ,-2.063478509182723e-07  ,-6.7851449341092036e-09 ,5.0604451443648305e-08 ,68.97403059098633      ,0.0 ,59.491744287832354    ,2.4929226438655663      ,        0.0 ,        0.0 , 0.0
 0.0 ,0.0 ,           0.0 ,            0.0 ,            0.0 ,            0.0 ,              0.0 ,                   0.0 , 749.0 ,19.43744 ,-6.110181 ,           0.0 ,           0.0 ,       0.0 ,125.4526       ,-18.65544   ,-0.01159356      ,-0.0006468393    ,                 0.0 ,             0.0 ,             0.0 ,                 0.0 ,                 0.0 ,        0.0 ,2.002971074718008      ,            0.0 ,            0.0 ,            0.0 ,              0.0 ,                   0.0 ,  0.0 ,0.0 , 646.0725640763702   ,1.0                ,0.0 ,-55.50099760560203  ,-115.01706847743881 ,-2.029080268020352      ,-57.161255054888215 ,          0.0 ,          0.0 ,-55.43188524851702  ,-115.08618584997568 ,-57.161255054888215 ,-227.67928613733258 , 33.95433868204724   , 75.89310040486394  , 58.81064392051219   ,-50.50485098315711    ,-110.02093182409018 ,-2.029080268020352      ,-52.16510841639497  ,          0.0 ,          0.0 ,-50.435743595764876  ,-110.08999433569376 ,-52.16510841639497  ,-212.69088119273854 , 33.95433868204724   , 70.8969587521118    , 58.81064392051219   ,-7.540916970042792e-09  ,-9.285148855257694e-07  ,-3.789236475819238e-06  ,      0.0 ,      0.0 ,      0.0 ,1.5336762378712372e-06  ,-2.469732089208444e-06  ,      0.0 ,-9.360556014559361e-07  ,2.020246825668134e-06  ,0.0391665598579502   ,-2.1836405533972217e-07 ,-5.925539291973647e-09  ,0.0                     ,2.1844710475361382e-07 ,128.1784992552693      ,0.0 ,0.0                   ,0.0                     ,        0.0 ,        0.0 , 0.0
 0.0 ,0.0 ,           0.0 ,            0.0 ,            0.0 ,            0.0 ,              0.0 ,                   0.0 , 750.0 ,21.35271 ,-6.131786 ,           0.0 ,           0.0 ,       0.0 ,125.4167       ,-18.67346   ,-0.01142948      ,-0.0006994322    ,                 0.0 ,             0.0 ,             0.0 ,                 0.0 ,                 0.0 ,        0.0 ,3.4936170538039475     ,            0.0 ,            0.0 ,            0.0 ,              0.0 ,                   0.0 ,  0.0 ,0.0 , 647.083721911541    ,1.0                ,0.0 ,-56.30088146736746  ,-115.37025442087105 ,-2.0512350667789043     ,-57.454789468766975 ,          0.0 ,          0.0 ,-56.22974021773933  ,-115.44139068297696 ,-57.454789468766975 ,-229.12591542875379 , 33.83890286418878   , 76.37531011132309  , 58.61070127415456   ,-51.304769764134896   ,-110.37416762885343 ,-2.0512350667789043     ,-52.45867278329144  ,          0.0 ,          0.0 ,-51.233618555300005  ,-110.44529889359896 ,-52.45867278329144  ,-214.1375603848049  , 33.83890286418878   , 71.37919341073014   , 58.61070127415456   ,-1.0481699063533507e-06 ,-4.112925715123404e-07  ,-3.6371388877753015e-06 ,      0.0 ,      0.0 ,      0.0 ,1.7433736727243617e-06  ,-3.202835551209154e-06  ,      0.0 ,-1.4594621775705454e-06 ,2.5524884570063566e-06 ,0.04019071345140067  ,7.571430814558307e-05   ,-4.42761005516889e-09   ,-5.866281556625042e-10  ,2.7116121634108415e-07 ,127.50329167344425     ,0.0 ,0.27356127889209597   ,0.010191229430025038    ,        0.0 ,        0.0 , 0.0
 0.0 ,0.0 ,           0.0 ,            0.0 ,            0.0 ,            0.0 ,              0.0 ,                   0.0 , 751.0 ,23.27373 ,-6.15047  ,           0.0 ,           0.0 ,       0.0 ,125.3517       ,-18.68564   ,-0.011301        ,-0.0007315374    ,                 0.0 ,             0.0 ,             0.0 ,                 0.0 ,                 0.0 ,        0.0 ,1.4965723077055837     ,            0.0 ,            0.0 ,            0.0 ,              0.0 ,                   0.0 ,  0.0 ,0.0 , 648.0877000609488   ,1.0                ,0.0 ,-57.07080315597356  ,-115.68618816537779 ,-2.034805633024496      ,-57.722349701947635 ,          0.0 ,          0.0 ,-57.00022364117135  ,-115.75676770753174 ,-57.722349701947635 ,-230.47935613780203 , 33.71734550420446   , 76.82644535641607  , 58.400158219606624  ,-52.07477101652097    ,-110.69017097013268 ,-2.034805633024496      ,-52.726317562495026 ,          0.0 ,          0.0 ,-52.00419649880068   ,-110.76070065523047 ,-52.726317562495026 ,-215.49124969792868 , 33.71734550420446   , 71.83041321696346   , 58.400158219606624  ,-1.945428696268773e-06  ,3.3909853124265236e-07  ,-1.6202645061309271e-06 ,      0.0 ,      0.0 ,      0.0 ,6.005277710733093e-07   ,-2.2068582837218258e-06 ,      0.0 ,-1.6063305137242954e-06 ,1.4785763719270194e-06 ,0.48322328268592907  ,0.03967672630174726     ,-3.056292476886018e-08  ,-1.4663099507150204e-07 ,2.2911660418704959e-10 ,0.2941302474141095     ,0.0 ,125.88036886572561    ,4.985280538286831       ,        0.0 ,        0.0 , 0.0
 0.0 ,0.0 ,           0.0 ,            0.0 ,            0.0 ,            0.0 ,              0.0 ,                   0.0 , 752.0 ,25.19895 ,-6.167952 ,           0.0 ,           0.0 ,       0.0 ,125.2567       ,-18.69362   ,-0.01095409      ,-0.0007612641    ,                 0.0 ,             0.0 ,             0.0 ,                 0.0 ,                 0.0 ,        0.0 ,1.998337970765538      ,            0.0 ,            0.0 ,            0.0 ,              0.0 ,                   0.0 ,  0.0 ,0.0 , 649.0882914219678   ,1.0                ,0.0 ,-57.810219562458485 ,-116.00363788382445 ,-2.072606200782021      ,-57.992814517848444 ,          0.0 ,          0.0 ,-57.736492991257606 ,-116.07735450488622 ,-57.992814517848444 ,-231.80668184286975 , 33.60995858769983   , 77.26889063797691  , 58.21414996296734   ,-52.81413745116434    ,-111.00755568908909 ,-2.072606200782021      ,-52.996727425294615 ,          0.0 ,          0.0 ,-52.74041087996348   ,-111.08126233525115 ,-52.996727425294615 ,-216.81842549236706 , 33.60995858769983   , 72.27280354542307   , 58.21414996296734   ,-1.7620669333710803e-06 ,1.841788923549777e-07   ,-3.7490844127064924e-06 ,      0.0 ,      0.0 ,      0.0 ,1.8601184928650215e-06  ,-3.4380066320494945e-06 ,      0.0 ,-1.577888389078472e-06  ,2.721849375281465e-06  ,0.26426607998442697  ,0.021116876105713434    ,-2.175035209120505e-07  ,-2.3497558395753317e-09 ,5.3599325707770054e-08 ,68.60774182388987      ,0.0 ,58.69851671353755     ,2.488390772598988       ,        0.0 ,        0.0 , 0.0
 0.0 ,0.0 ,           0.0 ,            0.0 ,            0.0 ,            0.0 ,              0.0 ,                   0.0 , 753.0 ,27.12703 ,-6.185014 ,           0.0 ,           0.0 ,       0.0 ,125.1351       ,-18.69853   ,-0.0112252       ,-0.0008498846    ,                 0.0 ,             0.0 ,             0.0 ,                 0.0 ,                 0.0 ,        0.0 ,1.5057566989132        ,            0.0 ,            0.0 ,            0.0 ,              0.0 ,                   0.0 ,  0.0 ,0.0 , 650.087165861718    ,1.0                ,0.0 ,-58.5217716068184   ,-116.31075591761262 ,-2.076351933272808      ,-58.24809161139457  ,          0.0 ,          0.0 ,-58.44726572334709  ,-116.38527174650613 ,-58.24809161139457  ,-233.08059412726487 , 33.508339697052506  , 77.69354136207662  , 58.038151142209415  ,-53.525674605151366   ,-111.31466884782512 ,-2.076351933272808      ,-53.25199961072395  ,          0.0 ,          0.0 ,-53.4511687412012    ,-111.38918967572222 ,-53.25199961072395  ,-218.09228819935194 , 33.508339697052506  , 72.69744436040958   , 58.038151142209415  ,-1.3588242692411082e-06 ,2.2684823032680205e-07  ,-4.534368896893234e-06  ,      0.0 ,      0.0 ,      0.0 ,1.8782694236684564e-06  ,-3.010245461471279e-06  ,      0.0 ,-1.1319758883585644e-06 ,2.4734118749879513e-06 ,0.04023298261009547  ,7.141302860121439e-05   ,-1.2411242415455959e-09 ,-2.070042160079253e-12  ,1.7226905449526652e-07 ,127.0971130221769      ,0.0 ,0.2659890689609206    ,0.009754000334409882    ,        0.0 ,        0.0 , 0.0
 0.0 ,0.0 ,           0.0 ,            0.0 ,            0.0 ,            0.0 ,              0.0 ,                   0.0 , 754.0 ,29.05686 ,-6.201999 ,           0.0 ,           0.0 ,       0.0 ,124.9919       ,-18.70119   ,-0.01087932      ,-0.0002199263    ,                 0.0 ,             0.0 ,             0.0 ,                 0.0 ,                 0.0 ,        0.0 ,2.996497424593514      ,            0.0 ,            0.0 ,            0.0 ,              0.0 ,                   0.0 ,  0.0 ,0.0 , 651.0850963256062   ,1.0                ,0.0 ,-59.275370384071635 ,-116.61558871560354 ,-2.0661387860691063     ,-58.51152418714308  ,          0.0 ,          0.0 ,-59.201010033195004 ,-116.68994901304288 ,-58.51152418714308  ,-234.40248832334174 , 33.39217649621198   , 78.13415944131361  , 57.836945134985754  ,-54.27929855086807    ,-111.61952682956178 ,-2.0661387860691063     ,-53.51545237235104  ,          0.0 ,          0.0 ,-54.20493820059053   ,-111.69388718043842 ,-53.51545237235104  ,-219.4142826996432  , 33.39217649621198   , 73.13808260840959   , 57.836945134985754  ,-2.0848574368640095e-06 ,5.536212829822333e-07   ,-4.304475184192133e-06  ,      0.0 ,      0.0 ,      0.0 ,1.7994751481388727e-06  ,-3.330711251649423e-06  ,      0.0 ,-1.53123610351055e-06   ,2.6048143305629124e-06 ,0.24899967721244856  ,0.018336293557607783    ,-6.219248888798055e-08  ,-5.302372644809913e-10  ,1.4012283597031941e-07 ,58.93848719320993      ,0.0 ,68.13258156166471     ,2.4984681736463568      ,        0.0 ,        0.0 , 0.0
 0.0 ,0.0 ,           0.0 ,            0.0 ,            0.0 ,            0.0 ,              0.0 ,                   0.0 , 755.0 ,30.98752 ,-6.219048 ,           0.0 ,           0.0 ,       0.0 ,124.8319       ,-18.70223   ,-0.0105163       ,-0.0001622502    ,                 0.0 ,             0.0 ,             0.0 ,                 0.0 ,                 0.0 ,        0.0 ,0.9996770089658314     ,            0.0 ,            0.0 ,            0.0 ,              0.0 ,                   0.0 ,  0.0 ,0.0 , 652.0824927296048   ,0.9999999999999999 ,0.0 ,-59.97318882820615  ,-116.94249784602536 ,-2.031687962906858      ,-58.7713586313086   ,          0.0 ,          0.0 ,-59.900814908551254 ,-117.01481686958134 ,-58.7713586313086   ,-235.68702542702718 , 33.30568130361147   , 78.56234344104205  , 57.68713368036702   ,-54.977186874723095   ,-111.94647588931241 ,-2.031687962906858      ,-53.77535669379661  ,          0.0 ,          0.0 ,-54.904812951838295  ,-112.01885977379528 ,-53.77535669379661  ,-220.69901948008447 , 33.30568130361147   , 73.56633650191509   , 57.68713368036702   ,-1.6136453727900655e-06 ,5.043947352197657e-07   ,-2.076921915475879e-06  ,      0.0 ,      0.0 ,      0.0 ,9.286130545150315e-07   ,-2.0378636914464894e-06 ,      0.0 ,-1.1092506369314578e-06 ,1.5174112148917826e-06 ,0.263987454819869    ,0.021173798348821413    ,-1.773916038251936e-07  ,-1.959622785168325e-10  ,4.143882764343333e-08  ,67.15625299289869      ,0.0 ,58.56777826576874     ,2.4889564409260583      ,        0.0 ,        0.0 , 0.0
 0.0 ,0.0 ,           0.0 ,            0.0 ,            0.0 ,            0.0 ,              0.0 ,                   0.0 , 756.0 ,32.91815 ,-6.23622  ,           0.0 ,           0.0 ,       0.0 ,124.6587       ,-18.7021    ,-0.01022996      ,-9.243294e-05    ,                 0.0 ,             0.0 ,             0.0 ,                 0.0 ,                 0.0 ,        0.0 ,2.9966054998038345     ,            0.0 ,            0.0 ,            0.0 ,              0.0 ,                   0.0 ,  0.0 ,0.0 , 653.0794679184912   ,1.0                ,0.0 ,-60.733571084148565 ,-117.29678567337723 ,-2.0766096636515607     ,-59.05229608682767  ,          0.0 ,          0.0 ,-60.657429639098716 ,-117.37295699053449 ,-59.05229608682767  ,-237.08271261096445 , 33.21778730605791   , 79.02755757619144  , 57.53489618697617   ,-55.737519211116734   ,-112.30077360273211 ,-2.0766096636515607     ,-54.056249216824206 ,          0.0 ,          0.0 ,-55.66138276909524   ,-112.37690508172696 ,-54.056249216824206 ,-222.09455701003915 , 33.21778730605791   , 74.03151070618797   , 57.53489618697617   ,-3.042272662811156e-06  ,9.78605068416274e-07    ,-4.05699171270588e-06   ,      0.0 ,      0.0 ,      0.0 ,1.8425632618417834e-06  ,-3.906230704551393e-06  ,      0.0 ,-2.0636674427096083e-06 ,2.9371431488897908e-06 ,0.040233087414574716 ,5.130275898861799e-05   ,-6.672079104017352e-10  ,-4.968725093761485e-13  ,1.8752545041727649e-07 ,126.43448021180026     ,0.0 ,0.18868261767991545   ,0.0069673149454250495   ,        0.0 ,        0.0 , 0.0
 0.0 ,0.0 ,           0.0 ,            0.0 ,            0.0 ,            0.0 ,              0.0 ,                   0.0 , 757.0 ,34.84785 ,-6.253527 ,           0.0 ,           0.0 ,       0.0 ,124.4756       ,-18.70109   ,-0.009946784     ,-9.903248e-06    ,                 0.0 ,             0.0 ,             0.0 ,                 0.0 ,                 0.0 ,        0.0 ,2.9979109739089727     ,            0.0 ,            0.0 ,            0.0 ,              0.0 ,                   0.0 ,  0.0 ,0.0 , 654.0758965388931   ,1.0                ,0.0 ,-61.431262559788244 ,-117.66414018092422 ,-2.109316994902179      ,-59.32441879335065  ,          0.0 ,          0.0 ,-61.3522454051989   ,-117.74316242138289 ,-59.32441879335065  ,-238.41979653405423 , 33.15827038508331   , 79.47326553610958  , 57.431815490646585  ,-56.435230798143685   ,-112.66807850050571 ,-2.109316994902179      ,-54.32838703170609  ,          0.0 ,          0.0 ,-56.35621364355434   ,-112.74709565509505 ,-54.32838703170609  ,-223.4316912421512  , 33.15827038508331   , 74.477233774465     , 57.431815490646585  ,-3.4381319282313717e-06 ,1.1282469684822084e-06  ,-3.82127505009189e-06   ,      0.0 ,      0.0 ,      0.0 ,1.8402973944358519e-06  ,-4.150181355345388e-06  ,      0.0 ,-2.3098839609095355e-06 ,3.069824148788258e-06  ,0.24845330832344975  ,0.018523256318841913    ,-9.324520391262255e-08  ,-1.7935968016003573e-10 ,9.560637402827434e-08  ,58.514293989158226     ,0.0 ,67.8753388148312      ,2.50641289926974        ,        0.0 ,        0.0 , 0.0
 0.0 ,0.0 ,           0.0 ,            0.0 ,            0.0 ,            0.0 ,              0.0 ,                   0.0 , 758.0 ,36.77559 ,-6.270917 ,           0.0 ,           0.0 ,       0.0 ,124.2852       ,-18.69944   ,-0.009760848     ,7.85646e-05      ,                 0.0 ,             0.0 ,             0.0 ,                 0.0 ,                 0.0 ,        0.0 ,2.5006797233187985     ,            0.0 ,            0.0 ,            0.0 ,              0.0 ,                   0.0 ,  0.0 ,0.0 , 655.0716240119531   ,0.9999999999999999 ,0.0 ,-62.152387065689794 ,-118.00775311818893 ,-2.145904014530428      ,-59.591819325621756 ,          0.0 ,          0.0 ,-62.07005092036249  ,-118.0901293558189  ,-59.591819325621756 ,-239.7519396411572  , 33.08209546332126   , 79.91731820859115  , 57.29987332494676   ,-57.156405316947556   ,-113.01180140880078 ,-2.145904014530428      ,-54.59583757687951  ,          0.0 ,          0.0 ,-57.07406917162023   ,-113.09409269258205 ,-54.59583757687951  ,-224.76403432480885 , 33.08209546332126   , 74.92134145305167   , 57.29987332494676   ,-4.7510488655081304e-06 ,1.4827747259040257e-06  ,-2.4440390720920357e-06 ,      0.0 ,      0.0 ,      0.0 ,1.760343327687394e-06   ,-5.028617965753122e-06  ,      0.0 ,-3.2682746380657274e-06 ,3.5242803147625014e-06 ,0.24813490703922553  ,0.01865059793658061     ,-1.4856610611393337e-07 ,-4.4458374770232235e-10 ,1.4353581255149082e-07 ,58.17645305101202      ,0.0 ,67.38785868665843     ,2.505957089526125       ,        0.0 ,        0.0 , 0.0
 0.0 ,0.0 ,           0.0 ,            0.0 ,            0.0 ,            0.0 ,              0.0 ,                   0.0 , 759.0 ,38.70011 ,-6.28822  ,           0.0 ,           0.0 ,       0.0 ,124.0908       ,-18.6973    ,-0.009628634     ,0.000166238      ,                 0.0 ,             0.0 ,             0.0 ,                 0.0 ,                 0.0 ,        0.0 ,1.0023944459355483     ,            0.0 ,            0.0 ,            0.0 ,              0.0 ,                   0.0 ,  0.0 ,0.0 , 656.0663485418935   ,1.0                ,0.0 ,-62.69360945577592  ,-118.30923508059445 ,-2.186087737625202      ,-59.80341376027522  ,          0.0 ,          0.0 ,-62.60766761191076  ,-118.39522194908236 ,-59.80341376027522  ,-240.8062932306412  , 33.048902566272545  , 80.2687660847865   , 57.24237847270458   ,-57.69768758458976    ,-113.31337314317774 ,-2.186087737625202      ,-54.807491889089064 ,          0.0 ,          0.0 ,-57.61174574072461   ,-113.39932495840002 ,-54.807491889089064 ,-225.81853764527344 , 33.048902566272545  , 75.2728492279218    , 57.24237847270458   ,-2.185349188591349e-06  ,6.637230812391457e-07   ,-1.3478985812081828e-06 ,      0.0 ,      0.0 ,      0.0 ,8.151245160447342e-07   ,-2.3367506238667827e-06 ,      0.0 ,-1.5216261073522032e-06 ,1.6360093448721793e-06 ,0.47150664789270585  ,0.04025604065382059     ,-1.4864689145636967e-07 ,-1.1501317087805308e-08 ,0.0                    ,1.4976333823237991e-07 ,0.0 ,124.90648408127335    ,4.995920871186158       ,        0.0 ,        0.0 , 0.0
 0.0 ,0.0 ,           0.0 ,            0.0 ,            0.0 ,            0.0 ,              0.0 ,                   0.0 , 760.0 ,40.61972 ,-6.30502  ,           0.0 ,           0.0 ,       0.0 ,123.8978       ,-18.6948    ,-0.009440875     ,0.00026654       ,                 0.0 ,             0.0 ,             0.0 ,                 0.0 ,                 0.0 ,        0.0 ,0.9999269681608822     ,            0.0 ,            0.0 ,            0.0 ,              0.0 ,                   0.0 ,  0.0 ,0.0 , 657.0595972186436   ,1.0                ,0.0 ,-63.37955798297443  ,-118.50878207716778 ,-2.2574415851791825     ,-60.00489193646165  ,          0.0 ,          0.0 ,-63.28707735304572  ,-118.60126761483332 ,-60.00489193646165  ,-241.89321682724025 , 32.92481988223749   , 80.63106897822206  , 57.02745467096328   ,-58.383546489931476   ,-113.51277050921536 ,-2.2574415851791825     ,-55.00888044341869  ,          0.0 ,          0.0 ,-58.29107084630064   ,-113.60527108579623 ,-55.00888044341869  ,-226.9052124533463  , 32.92481988223749   , 75.63506748444877   , 57.02745467096328   ,-3.448530962013022e-06  ,1.0866540473810881e-06  ,-3.406124857057507e-06  ,      0.0 ,      0.0 ,      0.0 ,1.6553924091714384e-06  ,-4.017269825100551e-06  ,      0.0 ,-2.361876914631934e-06  ,2.9172656195172702e-06 ,0.24742313367438035  ,0.018517143607865008    ,-5.5758726261020616e-08 ,-1.5685771530035052e-10 ,8.541473432911152e-08  ,58.23751610141421      ,0.0 ,67.82913432765078     ,2.505140785794759       ,        0.0 ,        0.0 , 0.0
 0.0 ,0.0 ,           0.0 ,            0.0 ,            0.0 ,            0.0 ,              0.0 ,                   0.0 , 761.0 ,42.53214 ,-6.320445 ,           0.0 ,           0.0 ,       0.0 ,123.7156       ,-18.692     ,-0.009209594     ,0.0003578798     ,                 0.0 ,             0.0 ,             0.0 ,                 0.0 ,                 0.0 ,        0.0 ,1.003099637802705      ,            0.0 ,            0.0 ,            0.0 ,              0.0 ,                   0.0 ,  0.0 ,0.0 , 658.0502831766951   ,1.0                ,0.0 ,-63.91314495613483  ,-118.5924794075777  ,-2.191987065682466      ,-60.12673016493738  ,          0.0 ,          0.0 ,-63.824855051422276 ,-118.68073955954328 ,-60.12673016493738  ,-242.63237965902107 , 32.792330617218376  , 80.87745156121059  , 56.79798305501649   ,-58.91725331303665    ,-113.59657297435052 ,-2.191987065682466      ,-55.13083852183921  ,          0.0 ,          0.0 ,-58.82896341707764   ,-113.68487290532369 ,-55.13083852183921  ,-227.64467468524086 , 32.792330617218376  , 75.88155992686596   , 56.79798305501649   ,-2.4277319330771564e-06 ,6.636661051314467e-07   ,-1.0018912555662649e-06 ,      0.0 ,      0.0 ,      0.0 ,7.429679888812888e-07   ,-2.5070338168269987e-06 ,      0.0 ,-1.7640653268335679e-06 ,1.7029332307684203e-06 ,0.26282470664909324  ,0.021739883690968166    ,-6.658697511009898e-08  ,-6.807098853568057e-09  ,9.520024679707564e-08  ,67.499013975557        ,0.0 ,56.987172441711714    ,2.4876889932351305      ,        0.0 ,        0.0 , 0.0
 0.0 ,0.0 ,           0.0 ,            0.0 ,            0.0 ,            0.0 ,              0.0 ,                   0.0 , 762.0 ,44.43415 ,-6.332825 ,           0.0 ,           0.0 ,       0.0 ,123.5617       ,-18.689     ,-0.009314315     ,0.0004678423     ,                 0.0 ,             0.0 ,             0.0 ,                 0.0 ,                 0.0 ,        0.0 ,2.4927336232921062     ,            0.0 ,            0.0 ,            0.0 ,              0.0 ,                   0.0 ,  0.0 ,0.0 , 659.0351587666821   ,1.0                ,0.0 ,-64.55699583639556  ,-118.41359560339124 ,-2.0921369240431136     ,-60.17291246513294  ,          0.0 ,          0.0 ,-64.47505971102633  ,-118.49547158872858 ,-60.17291246513294  ,-243.1434989507703  , 32.50350768022495   , 81.04782625225894  , 56.2977298079217    ,-59.56109987085338    ,-113.4176545651853  ,-2.0921369240431136     ,-55.177011491479774 ,          0.0 ,          0.0 ,-59.479158737373176  ,-113.49962053430065 ,-55.177011491479774 ,-228.1557460026625  , 32.50350768022495   , 76.0519252786058    , 56.2977298079217    ,-4.9991054330370186e-06 ,1.4053534750086872e-06  ,-6.188715123037072e-07  ,      0.0 ,      0.0 ,      0.0 ,1.4540443496730587e-06  ,-5.0477963077013895e-06 ,      0.0 ,-3.5937519580283305e-06 ,3.412493439594975e-06  ,0.0413158946164596   ,9.359862044377972e-05   ,-1.0299060383394837e-09 ,-2.9411388430983716e-11 ,3.331679950423121e-07  ,124.31831789021669     ,0.0 ,0.2462241110819321    ,0.01074854190448106     ,        0.0 ,        0.0 , 0.0
 0.0 ,0.0 ,           0.0 ,            0.0 ,            0.0 ,            0.0 ,              0.0 ,                   0.0 , 763.0 ,46.3211  ,-6.339086 ,           0.0 ,           0.0 ,       0.0 ,123.4675       ,-18.68584   ,-0.00907458      ,0.0005959717     ,                 0.0 ,             0.0 ,             0.0 ,                 0.0 ,                 0.0 ,        0.0 ,3.0000000000000004     ,            0.0 ,            0.0 ,            0.0 ,              0.0 ,                   0.0 ,  0.0 ,0.0 , 660.0034208403523   ,1.0                ,0.0 ,-65.1164551817738   ,-117.99910053243438 ,-1.700010042886563      ,-60.10378528842854  ,          0.0 ,          0.0 ,-65.06050476442124  ,-118.05509045840789 ,-60.10378528842854  ,-243.21933596058494 , 32.1249908242866    , 81.073120289336    , 55.642118876356534  ,-60.12058992958284    ,-113.00325987805195 ,-1.700010042886563      ,-55.10791503454289  ,          0.0 ,          0.0 ,-60.06463951223027   ,-113.05919569420661 ,-55.10791503454289  ,-228.23178489609214 , 32.1249908242866    , 76.07725503714502   , 55.642118876356534  ,-5.137965870601465e-06  ,1.4499204813860649e-06  ,5.562996855076514e-07   ,      0.0 ,      0.0 ,      0.0 ,1.4636276788171995e-06  ,-5.151672567863134e-06  ,      0.0 ,-3.688045389215401e-06  ,3.475019998353247e-06  ,0.4644995379805984   ,0.04034583317038819     ,-3.8979243588485137e-07 ,5.687406799798672e-11   ,2.091445424509921e-09  ,0.5021235198928061     ,0.0 ,123.43982555983925    ,4.9740142607048         ,        0.0 ,        0.0 , 0.0
 0.0 ,0.0 ,           0.0 ,            0.0 ,            0.0 ,            0.0 ,              0.0 ,                   0.0 , 764.0 ,48.18583 ,-6.333664 ,           0.0 ,           0.0 ,       0.0 ,123.4891       ,-18.68257   ,-0.006361042     ,0.000581391      ,                 0.0 ,             0.0 ,             0.0 ,                 0.0 ,                 0.0 ,        0.0 ,2.01356871508133       ,            0.0 ,            0.0 ,            0.0 ,              0.0 ,                   0.0 ,  0.0 ,0.0 , 660.9298524404678   ,1.0                ,0.0 ,-65.50795170421657  ,-117.5738961309901  ,-1.034365138915721      ,-59.98458668748459  ,          0.0 ,          0.0 ,-65.48539341096573  ,-117.59645027880842 ,-59.98458668748459  ,-243.06637498367883 , 31.796112223644208  , 81.0221366838408   , 55.07248458334233   ,-60.51201438009868    ,-112.57796420001618 ,-1.034365138915721      ,-54.98864936336669  ,          0.0 ,          0.0 ,-60.48945608684784   ,-112.60049260199112 ,-54.98864936336669  ,-228.07858336402455 , 31.796112223644208  , 76.02620434624137   , 55.07248458334233   ,-4.724160960369032e-06  ,1.4131379704897167e-06  ,-4.293372646683576e-07  ,      0.0 ,      0.0 ,      0.0 ,1.4763817463384689e-06  ,-4.787404736217784e-06  ,      0.0 ,-3.3110229898793155e-06 ,3.2753026214125384e-06 ,0.4647904076374191   ,0.04022656800291546     ,-2.420653843436194e-07  ,3.757902367972678e-11   ,0.0                    ,2.4206543746180836e-07 ,0.0 ,124.75502590339829    ,4.99593484716727        ,        0.0 ,        0.0 , 0.0
 0.0 ,0.0 ,           0.0 ,            0.0 ,            0.0 ,            0.0 ,              0.0 ,                   0.0 , 765.0 ,50.0136  ,-6.307198 ,           0.0 ,           0.0 ,       0.0 ,123.7207       ,-18.67926   ,2.777999e-06     ,0.0009354792     ,                 0.0 ,             0.0 ,             0.0 ,                 0.0 ,                 0.0 ,        0.0 ,2.466380702323547      ,            0.0 ,            0.0 ,            0.0 ,              0.0 ,                   0.0 ,  0.0 ,0.0 , 661.7135543172064   ,1.0                ,0.0 ,-65.3924273523389   ,-117.07006072478929 ,-0.07459029874924783    ,-59.747839335821    ,          0.0 ,          0.0 ,-65.38912435145134  ,-117.073328603495   ,-59.747839335821    ,-242.21029178900727 , 31.599315586292704  , 80.73676410029495  , 54.73161455280141   ,-60.39643454023236    ,-112.0740677521744  ,-0.07459029874924783    ,-54.751846523714455 ,          0.0 ,          0.0 ,-60.3931315393448    ,-112.07734057231856 ,-54.751846523714455 ,-227.22231340619038 , 31.599315586292704  , 75.7407712881884    , 54.73161455280141   ,-4.741928681988888e-06  ,1.4702932563193298e-06  ,-1.1030889958983613e-06 ,      0.0 ,      0.0 ,      0.0 ,1.5208098732843812e-06  ,-4.7924457930977845e-06 ,      0.0 ,-3.271635425669558e-06  ,3.2949736053589277e-06 ,0.2479953594875846   ,0.019032950427269463    ,-5.836554330551949e-08  ,-8.593241830064295e-11  ,9.576399581886573e-08  ,57.10374848888892      ,0.0 ,68.65252835573546     ,2.554258710316073       ,        0.0 ,        0.0 , 0.0
 0.0 ,0.0 ,           0.0 ,            0.0 ,            0.0 ,            0.0 ,              0.0 ,                   0.0 , 766.0 ,51.78685 ,-6.236589 ,           0.0 ,           0.0 ,       0.0 ,124.3938       ,-18.67597   ,0.005266368      ,0.0009049119     ,                 0.0 ,             0.0 ,             0.0 ,                 0.0 ,                 0.0 ,        0.0 ,2.0541527051684523     ,            0.0 ,            0.0 ,            0.0 ,              0.0 ,                   0.0 ,  0.0 ,0.0 , 662.3449709336619   ,1.0                ,0.0 ,-64.53986705516377  ,-116.03663000590755 ,0.8754435706870742      ,-59.17952067904167  ,          0.0 ,          0.0 ,-64.51774123042003  ,-116.05877806146692 ,-59.17952067904167  ,-239.7560311579148  , 31.41818477503275   , 79.91868195190054  , 54.4178865422912    ,-59.54387333107475    ,-111.0406710944707  ,0.8754435706870742      ,-54.18353181957089  ,          0.0 ,          0.0 ,-59.52174750633101   ,-111.06280942079361 ,-54.18353181957089  ,-224.7680787466955  , 31.41818477503275   , 74.9226882278115    , 54.4178865422912    ,-2.567782069632258e-06  ,8.107564414203781e-07   ,-2.8507801861730757e-07 ,      0.0 ,      0.0 ,      0.0 ,8.169458931549688e-07   ,-2.573971521366849e-06  ,      0.0 ,-1.7570251469466606e-06 ,1.769703623841489e-06  ,0.03998439991458457  ,-1.4464001457888527e-07 ,-2.007972977145255e-09  ,0.0                     ,1.4467894559897618e-07 ,125.3878192177015      ,0.0 ,0.0                   ,0.0                     ,        0.0 ,        0.0 , 0.0
 0.0 ,0.0 ,           0.0 ,            0.0 ,            0.0 ,            0.0 ,              0.0 ,                   0.0 , 767.0 ,53.49153 ,-6.044962 ,           0.0 ,           0.0 ,       0.0 ,126.2777       ,-18.67273   ,0.004509699      ,-0.0004298493    ,                 0.0 ,             0.0 ,             0.0 ,                 0.0 ,                 0.0 ,        0.0 ,2.19802846389044       ,            0.0 ,            0.0 ,            0.0 ,              0.0 ,                   0.0 ,  0.0 ,0.0 , 660.378664425324    ,1.0                ,0.0 ,-61.81560205796852  ,-112.32688085745032 ,1.5543858336839387      ,-57.176527580392374 ,          0.0 ,          0.0 ,-61.767240925270734 ,-112.37525932422112 ,-57.176527580392374 ,-231.31903526098347 , 30.631723777090414  , 77.10634171400761  , 53.055706740491686  ,-56.819532263372864   ,-107.33082203028725 ,1.5543858336839387      ,-52.18045356382106  ,          0.0 ,          0.0 ,-56.77116690869943   ,-107.3792047190337  ,-52.18045356382106  ,-216.33082785748115 , 30.631723777090414  , 72.11026769743629   , 53.055706740491686  ,-2.8233050835460394e-06 ,8.750791459838944e-07   ,-3.603842479081913e-08  ,      0.0 ,      0.0 ,      0.0 ,8.96998362746235e-07    ,-2.8452243003083796e-06 ,      0.0 ,-1.9482254729409836e-06 ,1.9538090151345567e-06 ,0.08869295370301208  ,0.004707595676076199    ,-4.755394274619163e-08  ,-1.0011564988246112e-10 ,1.2508123263499927e-07 ,113.60111988075282     ,0.0 ,13.593534985010743    ,0.5654166318982747      ,        0.0 ,        0.0 , 0.0
 0.0 ,0.0 ,           0.0 ,            0.0 ,            0.0 ,            0.0 ,              0.0 ,                   0.0 , 768.0 ,55.13865 ,-5.375185 ,           0.0 ,           0.0 ,       0.0 ,132.9434       ,-18.66953   ,0.002342005      ,9.070772e-06     ,                 0.0 ,             0.0 ,             0.0 ,                 0.0 ,                 0.0 ,        0.0 ,3.4472282366184333     ,            0.0 ,            0.0 ,            0.0 ,              0.0 ,                   0.0 ,  0.0 ,0.0 , 666.0489673124036   ,1.0                ,0.0 ,-56.272824416734295 ,-100.91996710833693 ,1.7921510393351547      ,-51.55234074775018  ,          0.0 ,          0.0 ,-56.1983667040321   ,-100.99444418861538 ,-51.55234074775018  ,-208.745113022981   , 27.31102923431605   , 69.58171241263979  , 47.304099510539906  ,-51.2764089489915     ,-95.92353712038008  ,1.7921510393351547      ,-46.555930127369535 ,          0.0 ,          0.0 ,-51.20195104874941   ,-95.99801438819838  ,-46.555930127369535 ,-193.755886126937   , 27.31102923431605   , 64.5852967573571    , 47.304099510539906  ,-5.064627677980508e-06  ,1.3583883393335388e-06  ,8.993224626687282e-07   ,      0.0 ,      0.0 ,      0.0 ,1.4299899880269068e-06  ,-5.136229326673875e-06  ,      0.0 ,-3.7062393386469684e-06 ,3.4535120366109836e-06 ,0.24523146577223226  ,0.019871972262140367    ,-1.9632133155565767e-07 ,-4.2260377149641673e-10 ,5.117647559370135e-08  ,76.60422140379926      ,0.0 ,57.3804311251883      ,2.386711781699899       ,        0.0 ,        0.0 , 0.0
 0.0 ,0.0 ,           0.0 ,            0.0 ,            0.0 ,            0.0 ,              0.0 ,                   0.0 , 769.0 ,57.04284 ,-5.108283 ,           0.0 ,           0.0 ,       0.0 ,135.5752       ,-18.6658    ,0.006715256      ,0.001005494      ,                 0.0 ,             0.0 ,             0.0 ,                 0.0 ,                 0.0 ,        0.0 ,1.9579080296149085     ,            0.0 ,            0.0 ,            0.0 ,              0.0 ,                   0.0 ,  0.0 ,0.0 , 666.1047288033182   ,1.0                ,0.0 ,-53.69053433955183  ,-96.6541317603206   ,2.04273863281847        ,-49.3514368493415   ,          0.0 ,          0.0 ,-53.59347227760813  ,-96.75121852463485  ,-49.3514368493415   ,-199.69609438631227 , 26.23758163308141   , 66.56537271407996  , 45.44482612718956   ,-48.693946527679415   ,-91.65757359851695  ,2.04273863281847        ,-44.354848827009235 ,          0.0 ,          0.0 ,-48.59687948316963   ,-91.75461053717042  ,-44.354848827009235 ,-184.70633407524303 , 26.23758163308141   , 61.56878465687984   , 45.44482612718956   ,-2.9542687256112717e-06 ,7.555786664744754e-07   ,2.7958254358234036e-08  ,      0.0 ,      0.0 ,      0.0 ,7.560674028948051e-07   ,-2.954757486564371e-06  ,      0.0 ,-2.1986900836695655e-06 ,1.9609726867719136e-06 ,0.25827552421010036  ,0.02059338923503649     ,-6.538352070946531e-08  ,-1.7487722756067592e-09 ,4.692153405472702e-08  ,70.1360270610762       ,0.0 ,66.38444608416152     ,2.611915878848329       ,        0.0 ,        0.0 , 0.0
 0.0 ,0.0 ,           0.0 ,            0.0 ,            0.0 ,            0.0 ,              0.0 ,                   0.0 , 770.0 ,58.98159 ,-4.958186 ,           0.0 ,           0.0 ,       0.0 ,137.0377       ,-18.66195   ,0.009315178      ,-0.0001938347    ,                 0.0 ,             0.0 ,             0.0 ,                 0.0 ,                 0.0 ,        0.0 ,1.5100650241591898     ,            0.0 ,            0.0 ,            0.0 ,              0.0 ,                   0.0 ,  0.0 ,0.0 , 667.2866158114949   ,1.0                ,0.0 ,-51.57629508607865  ,-93.90697550287094  ,2.140854648890268       ,-47.838899876308865 ,          0.0 ,          0.0 ,-51.46690815172586  ,-94.0163821914008   ,-47.838899876308865 ,-193.32216084464866 , 25.680460266235183  , 64.44073011411567  , 44.4798603654137    ,-46.57968338740402    ,-88.91039832948374  ,2.140854648890268       ,-42.842283239089966 ,          0.0 ,          0.0 ,-46.47029151450697   ,-89.01975563257092  ,-42.842283239089966 ,-178.3323403416454  , 25.680460266235183  , 59.44411833172409   , 44.4798603654137    ,-2.1655771739687805e-06 ,5.277667666394153e-07   ,8.677564207886659e-07   ,      0.0 ,      0.0 ,      0.0 ,5.965591875796922e-07   ,-2.2343691055068745e-06 ,      0.0 ,-1.637809917927182e-06  ,1.492340889624485e-06  ,0.2503451012851351   ,0.019873287386059948    ,-6.361333658254535e-08  ,-1.687125309464093e-09  ,1.1105404907758441e-07 ,73.58810266019019      ,0.0 ,63.4370221065946      ,2.5091629561112856      ,        0.0 ,        0.0 , 0.0
 0.0 ,0.0 ,           0.0 ,            0.0 ,            0.0 ,            0.0 ,              0.0 ,                   0.0 , 771.0 ,60.92667 ,-4.849892 ,           0.0 ,           0.0 ,       0.0 ,138.0814       ,-18.65803   ,0.00897905       ,7.922525e-05     ,                 0.0 ,             0.0 ,             0.0 ,                 0.0 ,                 0.0 ,        0.0 ,3.003054542347184      ,            0.0 ,            0.0 ,            0.0 ,              0.0 ,                   0.0 ,  0.0 ,0.0 , 668.7312831175248   ,1.0                ,0.0 ,-50.04332054257785  ,-91.86256404101616  ,2.2375277051169378      ,-46.73641923719978  ,          0.0 ,          0.0 ,-49.922061890162404 ,-91.98378801315691  ,-46.73641923719978  ,-188.64229375126186 , 25.25568398906782   , 62.88076465328589  , 43.74413224162726   ,-45.04658108391367    ,-86.86583455180656  ,2.2375277051169378      ,-41.73967977853561  ,          0.0 ,          0.0 ,-44.92532741200499   ,-86.98706350445406  ,-41.73967977853561  ,-173.65208082561742 , 25.25568398906782   , 57.88403017512845   , 43.74413224162726   ,-5.211969303361998e-06  ,1.4463435966387715e-06  ,1.3946897025674414e-06  ,      0.0 ,      0.0 ,      0.0 ,1.5285046538271623e-06  ,-5.294129360550389e-06  ,      0.0 ,-3.765625699770034e-06  ,3.5804430969387197e-06 ,0.4281081437070058   ,0.0357791912687149      ,-1.5636721210353023e-07 ,-5.071466723656629e-09  ,1.5512669690103705e-09 ,1.0279211896615483     ,0.0 ,138.5801218330644     ,4.961989826681541       ,        0.0 ,        0.0 , 0.0
 0.0 ,0.0 ,           0.0 ,            0.0 ,            0.0 ,            0.0 ,              0.0 ,                   0.0 , 772.0 ,62.87038 ,-4.759189 ,           0.0 ,           0.0 ,       0.0 ,138.9485       ,-18.65404   ,0.009927566      ,-0.0001050812    ,                 0.0 ,             0.0 ,             0.0 ,                 0.0 ,                 0.0 ,        0.0 ,2.0060917166026586     ,            0.0 ,            0.0 ,            0.0 ,              0.0 ,                   0.0 ,  0.0 ,0.0 , 670.2185423020792   ,1.0                ,0.0 ,-48.457397721330906 ,-90.26767300677213  ,2.4687959299385667      ,-45.787215187771956 ,          0.0 ,          0.0 ,-48.31064452795138  ,-90.41447570805107  ,-45.787215187771956 ,-184.51233545470933 , 25.06901035228475   , 61.50410519249877  , 43.42079599619584   ,-43.46063335191384    ,-85.27091854502666  ,2.4687959299385667      ,-40.790445864519086 ,          0.0 ,          0.0 ,-43.31387526609201   ,-85.4176717693411   ,-40.790445864519086 ,-169.52202283808236 , 25.06901035228475   , 56.50733593063939   , 43.42079599619584   ,-2.557439649941597e-06  ,7.431571711079232e-07   ,8.17010759401572e-07    ,      0.0 ,      0.0 ,      0.0 ,7.930962234752731e-07   ,-2.607379191553178e-06  ,      0.0 ,-1.8142824788336739e-06 ,1.779078861154937e-06  ,0.24773406218505117  ,0.019195327198077216    ,-7.335823286671569e-08  ,-2.4037840507202797e-09 ,3.9800747194073223e-08 ,74.40847000029119      ,0.0 ,65.48559837105788     ,2.5057766895276425      ,        0.0 ,        0.0 , 0.0
 0.0 ,0.0 ,           0.0 ,            0.0 ,            0.0 ,            0.0 ,              0.0 ,                   0.0 , 773.0 ,64.81163 ,-4.675872 ,           0.0 ,           0.0 ,       0.0 ,139.7406       ,-18.64993   ,0.01133903       ,-9.356748e-05    ,                 0.0 ,             0.0 ,             0.0 ,                 0.0 ,                 0.0 ,        0.0 ,3.481249019631264      ,            0.0 ,            0.0 ,            0.0 ,              0.0 ,                   0.0 ,  0.0 ,0.0 , 671.721466808169    ,1.0                ,0.0 ,-46.948719784154974 ,-88.77505041170147  ,2.734655579268725       ,-44.89389620775809  ,          0.0 ,          0.0 ,-46.769513164772945 ,-88.95425213510015  ,-44.89389620775809  ,-180.6176465706009  , 24.914489379566014  , 60.205883846916194 , 43.153158716870266  ,-41.95194060063391    ,-83.77825141102578  ,2.734655579268725       ,-39.89711206994837  ,          0.0 ,          0.0 ,-41.77272902696322   ,-83.95745313442444  ,-39.89711206994837  ,-165.6273340233028  , 24.914489379566014  , 55.209099709106475  , 43.153158716870266  ,-4.115568639944783e-06  ,1.1723141697805134e-06  ,2.0085530478444154e-06  ,      0.0 ,      0.0 ,      0.0 ,1.4287123276094685e-06  ,-4.371967445143004e-06  ,      0.0 ,-2.9432546187929293e-06 ,3.0233805718303266e-06 ,0.03577428777086999  ,-2.161548159328383e-07  ,-7.948865752631528e-09  ,0.0                     ,2.1631791895852605e-07 ,140.57318306130466     ,0.0 ,0.0                   ,0.0                     ,        0.0 ,        0.0 , 0.0
 0.0 ,0.0 ,           0.0 ,            0.0 ,            0.0 ,            0.0 ,              0.0 ,                   0.0 , 774.0 ,66.7502  ,-4.595743 ,           0.0 ,           0.0 ,       0.0 ,140.4993       ,-18.64567   ,0.01350952       ,-8.567908e-05    ,                 0.0 ,             0.0 ,             0.0 ,                 0.0 ,                 0.0 ,        0.0 ,3.0058784725638956     ,            0.0 ,            0.0 ,            0.0 ,              0.0 ,                   0.0 ,  0.0 ,0.0 , 673.2309046469163   ,1.0                ,0.0 ,-45.20717749186463  ,-87.47300391338416  ,2.960054977939828       ,-44.02137651109967  ,          0.0 ,          0.0 ,-45.00056689396282  ,-87.67963432462322  ,-44.02137651109967  ,-176.70156755333153 , 24.92904764903219   , 58.90051599171106  , 43.17837816845234   ,-40.210397892578406   ,-82.47623422076659  ,2.960054977939828       ,-39.02460186514776  ,          0.0 ,          0.0 ,-40.00379224801091   ,-82.68281509866253  ,-39.02460186514776  ,-161.71120436574776 , 24.92904764903219   , 53.90374134575916   , 43.17837816845234   ,-2.751272130222922e-06  ,7.711482026284625e-07   ,2.29929062116483e-06    ,      0.0 ,      0.0 ,      0.0 ,1.1250690747043607e-06  ,-3.105192411358909e-06  ,      0.0 ,-1.9801233806548856e-06 ,2.191492171745465e-06  ,0.24490346015935324  ,0.019021289010595622    ,-1.722017965710338e-07  ,-6.8757679346402415e-09 ,1.1422112877394813e-07 ,75.75800552425905      ,0.0 ,64.44694109711554     ,2.474840364917903       ,        0.0 ,        0.0 , 0.0
 0.0 ,0.0 ,           0.0 ,            0.0 ,            0.0 ,            0.0 ,              0.0 ,                   0.0 , 775.0 ,68.68573 ,-4.517017 ,           0.0 ,           0.0 ,       0.0 ,141.2417       ,-18.64118   ,0.01456415       ,0.0001631071     ,                 0.0 ,             0.0 ,             0.0 ,                 0.0 ,                 0.0 ,        0.0 ,2.5013473431970774     ,            0.0 ,            0.0 ,            0.0 ,              0.0 ,                   0.0 ,  0.0 ,0.0 , 674.7433725331916   ,1.0                ,0.0 ,-43.37673044772616  ,-86.27599232698529  ,3.0600243643731933      ,-43.17233069090503  ,          0.0 ,          0.0 ,-43.159519752704306 ,-86.49318816675257  ,-43.17233069090503  ,-172.82506822437415 , 25.016929898140624  , 57.60835277362369  , 43.330587787029486  ,-38.37989634442292    ,-81.27916317543357  ,3.0600243643731933      ,-38.17549658760178  ,          0.0 ,          0.0 ,-38.162685649401055  ,-81.49637387045543  ,-38.17549658760178  ,-157.83455594923942 , 25.016929898140624  , 52.61152365684701   , 43.330587787029486  ,-3.240308141362808e-06  ,8.720520596404348e-07   ,2.2493658757371435e-06  ,      0.0 ,      0.0 ,      0.0 ,1.2053539076472197e-06  ,-3.57361018311912e-06   ,      0.0 ,-2.3682562760891198e-06 ,2.4868213682099804e-06 ,0.43357062685238607  ,0.0352871585853828      ,-2.5217355230868266e-07 ,-2.1687566322554563e-08 ,1.4063910386822713e-09 ,0.9264207623164816     ,0.0 ,140.63861747945361    ,4.9659887511136755      ,        0.0 ,        0.0 , 0.0
 0.0 ,0.0 ,           0.0 ,            0.0 ,            0.0 ,            0.0 ,              0.0 ,                   0.0 , 776.0 ,70.61724 ,-4.438845 ,           0.0 ,           0.0 ,       0.0 ,141.9752       ,-18.63637   ,0.01583683       ,-0.0005322419    ,                 0.0 ,             0.0 ,             0.0 ,                 0.0 ,                 0.0 ,        0.0 ,1.5050375117256896     ,            0.0 ,            0.0 ,            0.0 ,              0.0 ,                   0.0 ,  0.0 ,0.0 , 676.2585831168874   ,1.0                ,0.0 ,-41.45248688620559  ,-85.10414270626401  ,2.971287406032624       ,-42.3193501309592   ,          0.0 ,          0.0 ,-41.250433265733946 ,-85.30617157861126  ,-42.3193501309592   ,-168.87597962267859 , 25.135906672767746  , 56.29199489097214  , 43.536674624619344  ,-36.455558074534146   ,-80.10720396180517  ,2.971287406032624       ,-37.322421319287756 ,          0.0 ,          0.0 ,-36.25350940368739   ,-80.30925263265192  ,-37.322421319287756 ,-153.88521803640162 , 25.135906672767746  , 51.29506116335074   , 43.536674624619344  ,-3.860753625020361e-06  ,1.0315816081549962e-06  ,2.2069021875485805e-06  ,      0.0 ,      0.0 ,      0.0 ,1.2733403676830469e-06  ,-4.1025123845484125e-06 ,      0.0 ,-2.8291720168653654e-06 ,2.8095014450383083e-06 ,0.44707919824914244  ,0.03496868107231829     ,-1.6644407772127764e-07 ,-3.279028012784146e-08  ,0.0                    ,1.6965543936037398e-07 ,0.0 ,143.4755083735664     ,4.996929798201476       ,        0.0 ,        0.0 , 0.0
 0.0 ,0.0 ,           0.0 ,            0.0 ,            0.0 ,            0.0 ,              0.0 ,                   0.0 , 777.0 ,72.54314 ,-4.361029 ,           0.0 ,           0.0 ,       0.0 ,142.7006       ,-18.63109   ,0.01702461       ,-0.0006035988    ,                 0.0 ,             0.0 ,             0.0 ,                 0.0 ,                 0.0 ,        0.0 ,1.5020964071666172     ,            0.0 ,            0.0 ,            0.0 ,              0.0 ,                   0.0 ,  0.0 ,0.0 , 677.7586161983372   ,1.0                ,0.0 ,-39.506836519756575 ,-83.89526047807632  ,2.680314790397402       ,-41.45583039583386  ,          0.0 ,          0.0 ,-39.343959738099066 ,-84.05812735890706  ,-41.45583039583386  ,-164.85788268352792 , 25.232230331281265  , 54.952634251359534 , 43.70349590772756   ,-34.509882777785734   ,-78.89828686390122  ,2.680314790397402       ,-36.45887167482708  ,          0.0 ,          0.0 ,-34.34700599612821   ,-79.06116859597212  ,-36.45887167482708  ,-149.86702169788992 , 25.232230331281265  , 49.955680438838     , 43.70349590772756   ,-3.717828339515625e-06  ,9.418236438307959e-07   ,2.2556902890662237e-06  ,      0.0 ,      0.0 ,      0.0 ,1.2074256685688534e-06  ,-3.983430116446787e-06  ,      0.0 ,-2.7760044478779343e-06 ,2.7166287698284957e-06 ,0.2576403814968065   ,0.01867955212064817     ,-1.4801764664722977e-07 ,-3.029691220403577e-08  ,7.034063301250618e-08  ,76.74397209149645      ,0.0 ,67.44895157074335     ,2.50874381440441        ,        0.0 ,        0.0 , 0.0
 0.0 ,0.0 ,           0.0 ,            0.0 ,            0.0 ,            0.0 ,              0.0 ,                   0.0 , 778.0 ,74.45967 ,-4.281696 ,           0.0 ,           0.0 ,       0.0 ,143.4345       ,-18.62515   ,0.01656239       ,-0.0005992018    ,                 0.0 ,             0.0 ,             0.0 ,                 0.0 ,                 0.0 ,        0.0 ,1.9926280191341403     ,            0.0 ,            0.0 ,            0.0 ,              0.0 ,                   0.0 ,  0.0 ,0.0 , 679.2529325050057   ,1.0                ,0.0 ,-37.680221936511145 ,-82.65334080401097  ,2.222740913204987       ,-40.61015691439835  ,          0.0 ,          0.0 ,-37.568210155470496 ,-82.76533772844972  ,-40.61015691439835  ,-160.94374419476418 , 25.266766631413493  , 53.64790817050745  , 43.76332429315584   ,-32.68325806072074    ,-77.65637692822057  ,2.222740913204987       ,-35.61319296488815  ,          0.0 ,          0.0 ,-32.57124627968009   ,-77.76838870926122  ,-35.61319296488815  ,-145.9528329417049  , 25.266766631413493  , 48.65093934251642   , 43.76332429315584   ,-3.5068343361461895e-06 ,8.696677468010566e-07   ,2.2594394139097147e-06  ,      0.0 ,      0.0 ,      0.0 ,1.1497562774882104e-06  ,-3.7869229649213685e-06 ,      0.0 ,-2.637167184841114e-06  ,2.5832299000012576e-06 ,0.4709096389432238   ,0.03453146753775979     ,-2.688579676966799e-07  ,-7.980075051862468e-08  ,1.0414662760511273e-09 ,1.1362746533696264     ,0.0 ,143.1742949056532     ,4.96012335758289        ,        0.0 ,        0.0 , 0.0
 0.0 ,0.0 ,           0.0 ,            0.0 ,            0.0 ,            0.0 ,              0.0 ,                   0.0 , 779.0 ,76.35733 ,-4.197086 ,           0.0 ,           0.0 ,       0.0 ,144.2121       ,-18.6183    ,0.0137609        ,-0.0005509196    ,                 0.0 ,             0.0 ,             0.0 ,                 0.0 ,                 0.0 ,        0.0 ,0.9997650547417192     ,            0.0 ,            0.0 ,            0.0 ,              0.0 ,                   0.0 ,  0.0 ,0.0 , 679.6493495310572   ,1.0                ,0.0 ,-35.944208478234955 ,-81.36163203450897  ,1.4975169194573752      ,-39.77314773384104  ,          0.0 ,          0.0 ,-35.892984550461385 ,-81.41285608524929  ,-39.77314773384104  ,-157.0789735504777  , 25.235836179772775  , 52.35966118505887  , 43.70975171177277   ,-30.94722743744313    ,-76.36465099371713  ,1.4975169194573752      ,-34.77616669304922  ,          0.0 ,          0.0 ,-30.89600338670279   ,-76.41587504445747  ,-34.77616669304922  ,-142.08808487592648 , 25.235836179772775  , 47.36268002130028   , 43.70975171177277   ,-1.793597003026902e-06  ,4.397490050508113e-07   ,9.733834716886104e-07   ,      0.0 ,      0.0 ,      0.0 ,5.413830634829063e-07   ,-1.8952310194635842e-06 ,      0.0 ,-1.353848449714867e-06  ,1.2794585722019422e-06 ,0.48429966120540757  ,0.034672313510699104    ,-2.2691338955978657e-07 ,-7.677323725043204e-08  ,0.0                    ,2.3983843074115423e-07 ,0.0 ,144.64733153558717    ,4.996982559824206       ,        0.0 ,        0.0 , 0.0
 0.0 ,0.0 ,           0.0 ,            0.0 ,            0.0 ,            0.0 ,              0.0 ,                   0.0 , 780.0 ,78.22532 ,-4.101261 ,           0.0 ,           0.0 ,       0.0 ,145.0889       ,-18.61015   ,0.008493544      ,-0.0002370879    ,                 0.0 ,             0.0 ,             0.0 ,                 0.0 ,                 0.0 ,        0.0 ,1.009731815490249      ,            0.0 ,            0.0 ,            0.0 ,              0.0 ,                   0.0 ,  0.0 ,0.0 , 682.2543690770603   ,1.0                ,0.0 ,-34.46893882666508  ,-79.65647164626247  ,1.0211618515072054      ,-38.80209741706179  ,          0.0 ,          0.0 ,-34.444185024755654 ,-79.68123042719704  ,-38.80209741706179  ,-152.92747311986597 , 24.95861513782022   , 50.97583428044342  , 43.22959797957248   ,-29.471930358451843   ,-74.65946317804922  ,1.0211618515072054      ,-33.805088948848535 ,          0.0 ,          0.0 ,-29.447176556542413  ,-74.6842219589838   ,-33.805088948848535 ,-137.93651262461745 , 24.95861513782022   , 45.97883079125532   , 43.22959797957248   ,-1.5641162221452494e-06 ,3.752316445946446e-07   ,8.594115196216424e-07   ,      0.0 ,      0.0 ,      0.0 ,4.6617830198281316e-07  ,-1.6550627792565754e-06 ,      0.0 ,-1.1888846336079096e-06 ,1.1147661121429313e-06 ,0.27382127143282964  ,0.018419136380748984    ,-1.750235436746566e-07  ,-4.001265795632371e-08  ,2.094807823534083e-07  ,77.01202597545067      ,0.0 ,68.40167438486705     ,2.5087973938201427      ,        0.0 ,        0.0 , 0.0
 0.0 ,0.0 ,           0.0 ,            0.0 ,            0.0 ,            0.0 ,              0.0 ,                   0.0 , 781.0 ,5.371193 ,-4.127287 ,           0.0 ,           0.0 ,       0.0 ,138.7474       ,-18.00203   ,-0.01077564      ,0.003070625      ,                 0.0 ,             0.0 ,             0.0 ,                 0.0 ,                 0.0 ,        0.0 ,2.7765985115919944     ,            0.0 ,            0.0 ,            0.0 ,              0.0 ,                   0.0 ,  0.0 ,0.0 , 655.3882992557959   ,1.0                ,0.0 ,-33.383276897090624 ,-79.50081374423608  ,-0.6330113402932792     ,-38.56085827721743  ,          0.0 ,          0.0 ,-33.37417438776638  ,-79.5099156248109   ,-38.56085827721743  ,-151.44494078172087 , 25.275707801923186  , 50.48165125935092  , 43.77881531109456   ,-28.38616179811842    ,-74.50369864526388  ,-0.6330113402932792     ,-33.56373831873664  ,          0.0 ,          0.0 ,-28.377055405801617  ,-74.5128005258387   ,-33.56373831873664  ,-136.4535881333695  , 25.275707801923186  , 45.48453130087011   , 43.77881531109456   ,3.823750790466052e-06   ,-2.8027321200469713e-06 ,-4.016333375933536e-08  ,      0.0 ,      0.0 ,      0.0 ,3.823812950942623e-06   ,-2.802794280523541e-06  ,      0.0 ,1.0210186218239955e-06  ,3.3288432039941367e-06 ,0.4746531093717663   ,0.03174638571656605     ,-7.028780214276269e-08  ,-2.743901982222853e-08  ,8.582410826544396e-08  ,9.17313984147703       ,0.0 ,138.67119944156192    ,4.682927420045935       ,        0.0 ,        0.0 , 0.0
 0.0 ,0.0 ,           0.0 ,            0.0 ,            0.0 ,            0.0 ,              0.0 ,                   0.0 , 782.0 ,6.842781 ,-3.983913 ,           0.0 ,           0.0 ,       0.0 ,141.0076       ,-18.08468   ,-0.01373457      ,0.0004760523     ,                 0.0 ,             0.0 ,             0.0 ,                 0.0 ,                 0.0 ,        0.0 ,1.8152135309850626     ,            0.0 ,            0.0 ,            0.0 ,              0.0 ,                   0.0 ,  0.0 ,0.0 , 657.07425419843     ,1.0                ,0.0 ,-32.69740351290031  ,-77.06315176161038  ,-0.8063729008322749     ,-37.440286526423435 ,          0.0 ,          0.0 ,-32.68260824055949  ,-77.07795425610932  ,-37.440286526423435 ,-147.20085236813063 , 24.376617635110463  , 49.06694720651459  , 42.22154131151458   ,-27.70035816860114    ,-72.06610641731123  ,-0.8063729008322749     ,-32.44324118212427  ,          0.0 ,          0.0 ,-27.68555289626031   ,-72.08090168965205  ,-32.44324118212427  ,-132.20970371575618 , 24.376617635110463  , 44.069898341831546  , 42.22154131151458   ,2.5791204177833135e-06  ,-1.98167242024352e-06   ,-7.04921191655935e-08   ,      0.0 ,      0.0 ,      0.0 ,2.5794971404983775e-06  ,-1.9820491429585846e-06 ,      0.0 ,5.97448138355148e-07    ,2.2899408068466983e-06 ,0.3361759166493596   ,0.02272821702555695     ,1.234502781209017e-06   ,-3.942053678463321e-07  ,3.098251827809463e-08  ,53.68427124064028      ,0.0 ,92.8877435486906      ,3.2378023341917865      ,        0.0 ,        0.0 , 0.0
 0.0 ,0.0 ,           0.0 ,            0.0 ,            0.0 ,            0.0 ,              0.0 ,                   0.0 , 783.0 ,10.70538 ,-2.387152 ,           0.0 ,           0.0 ,       0.0 ,159.1223       ,-18.29939   ,-0.01234043      ,0.003103563      ,                 0.0 ,             0.0 ,             0.0 ,                 0.0 ,                 0.0 ,        0.0 ,2.0734655992669824     ,            0.0 ,            0.0 ,            0.0 ,              0.0 ,                   0.0 ,  0.0 ,0.0 , 639.6315452362478   ,1.0                ,0.0 ,-18.48888234178076  ,-47.67796951683589  ,-0.9422786887327465     ,-22.81289640056342  ,          0.0 ,          0.0 ,-18.456103832021295 ,-47.710748026595354 ,-22.81289640056342  ,-88.97974285872955  , 15.787861156276687  , 29.65991668419855  , 27.345378236667337  ,-13.491164678187102   ,-42.68025342569764  ,-0.9422786887327465     ,-17.81518030942518  ,          0.0 ,          0.0 ,-13.45838243246343   ,-42.71303193545711  ,-17.81518030942518  ,-73.9865923186626   , 15.787861156276687  , 24.66219666192178   , 27.345378236667337  ,4.822552950437854e-06   ,-3.766987891144955e-06  ,-4.29142661880909e-07   ,      0.0 ,      0.0 ,      0.0 ,4.830702523664026e-06   ,-3.7751374643711267e-06 ,      0.0 ,1.0555647977754044e-06  ,4.322225370001644e-06  ,0.42791905866769053  ,0.03018302183258608     ,-6.119834338360368e-08  ,-5.9699007163189645e-09 ,0.0                    ,6.150286223600234e-08  ,0.0 ,165.8013360411092     ,4.997719197014203       ,        0.0 ,        0.0 , 0.0
 0.0 ,0.0 ,           0.0 ,            0.0 ,            0.0 ,            0.0 ,              0.0 ,                   0.0 , 784.0 ,10.36312 ,-3.861522 ,           0.0 ,           0.0 ,       0.0 ,144.5121       ,-18.31273   ,-0.004618682     ,-0.0009052539    ,                 0.0 ,             0.0 ,             0.0 ,                 0.0 ,                 0.0 ,        0.0 ,2.6327451053744317     ,            0.0 ,            0.0 ,            0.0 ,              0.0 ,                   0.0 ,  0.0 ,0.0 , 660.5801129073592   ,1.0                ,0.0 ,-31.980611330355863 ,-74.92727854312636  ,-1.1333599331410436     ,-36.41497563337395  ,          0.0 ,          0.0 ,-31.950304025187066 ,-74.95758584829515  ,-36.41497563337395  ,-143.32282708582213 , 23.648273691478327  , 47.77428838273693  , 40.96001226248737   ,-26.98335940919821    ,-69.93002662196872  ,-1.1333599331410436     ,-31.41772423853828  ,          0.0 ,          0.0 ,-26.95305210402942   ,-69.9603339271375   ,-31.41772423853828  ,-128.33111430089954 , 23.648273691478327  , 42.77703646157928   , 40.96001226248737   ,5.381869175484358e-06   ,-3.4449289780696372e-06 ,-9.530828641482129e-07  ,      0.0 ,      0.0 ,      0.0 ,5.4083699851490105e-06  ,-3.471429840366488e-06  ,      0.0 ,1.936939689030891e-06   ,4.4758241175310665e-06 ,0.4865857984872704   ,0.03312581063024692     ,-6.790344582356317e-08  ,-9.27877503208117e-09   ,0.0                    ,6.855865791000542e-08  ,0.0 ,151.11735460309782    ,4.997251254877224       ,        0.0 ,        0.0 , 0.0
 0.0 ,0.0 ,           0.0 ,            0.0 ,            0.0 ,            0.0 ,              0.0 ,                   0.0 , 785.0 ,12.07235 ,-4.136948 ,           0.0 ,           0.0 ,       0.0 ,142.8005       ,-18.41699   ,-0.01467289      ,7.562339e-05     ,                 0.0 ,             0.0 ,             0.0 ,                 0.0 ,                 0.0 ,        0.0 ,3.5158777941180093     ,            0.0 ,            0.0 ,            0.0 ,              0.0 ,                   0.0 ,  0.0 ,0.0 , 662.4670056358198   ,1.0                ,0.0 ,-35.273037794068095 ,-80.37377759276325  ,-1.2606679709055273     ,-39.23757894458615  ,          0.0 ,          0.0 ,-35.237721578374604 ,-80.40909380845673  ,-39.23757894458615  ,-154.88438389224694 , 25.011082175936615  , 51.62812978126841  , 43.32046447932069   ,-30.275921644386123   ,-75.37665660185921  ,-1.2606679709055273     ,-34.24046296606988  ,          0.0 ,          0.0 ,-30.24060058747058   ,-75.4119728175527   ,-34.24046296606988  ,-139.8930313587054  , 25.011082175936615  , 46.63100879036439   , 43.32046447932069   ,1.9988188853797118e-06  ,-2.457003806250426e-06  ,-9.683956681955167e-07  ,      0.0 ,      0.0 ,      0.0 ,2.1959183364442332e-06  ,-2.6541029355459736e-06 ,      0.0 ,-4.5818493798728425e-07 ,2.6293822775336297e-06 ,0.4861945067473299   ,0.033876399209277736    ,-1.4927063417986137e-07 ,-1.492770636251778e-08  ,0.0                    ,1.500181135779947e-07  ,0.0 ,148.09507124604815    ,4.997118985948924       ,        0.0 ,        0.0 , 0.0
 0.0 ,0.0 ,           0.0 ,            0.0 ,            0.0 ,            0.0 ,              0.0 ,                   0.0 , 786.0 ,13.86451 ,-4.256961 ,           0.0 ,           0.0 ,       0.0 ,142.429        ,-18.49986   ,-0.01331837      ,-0.0002196686    ,                 0.0 ,             0.0 ,             0.0 ,                 0.0 ,                 0.0 ,        0.0 ,1.4942291803363477     ,            0.0 ,            0.0 ,            0.0 ,              0.0 ,                   0.0 ,  0.0 ,0.0 , 664.5249717464451   ,1.0                ,0.0 ,-36.96353736482817  ,-81.99456962266132  ,-1.3279751307743586     ,-40.228064973639995 ,          0.0 ,          0.0 ,-36.924331614980005 ,-82.03377518050021  ,-40.228064973639995 ,-159.1861725242161  , 25.144976193926105  , 53.06205732037649  , 43.552376612718675  ,-31.966540179207158   ,-76.99756739227328  ,-1.3279751307743586     ,-35.23106778801898  ,          0.0 ,          0.0 ,-31.927329576601238  ,-77.03677314212143  ,-35.23106778801898  ,-144.1951807116921  , 25.144976193926105  , 48.06505528199773   , 43.552376612718675  ,-5.327487669451499e-07  ,-7.352123102467644e-07  ,-5.248769768817905e-07  ,      0.0 ,      0.0 ,      0.0 ,-3.428768028539754e-07  ,-9.250839346448962e-07  ,      0.0 ,-1.2679610675914508e-06 ,4.836781967895556e-07  ,0.47612054183512453  ,0.03460598602831117     ,5.173402661447171e-07   ,-3.4091041609951465e-07 ,0.0                    ,8.351448416916509e-07  ,0.0 ,144.64526687802964    ,4.997000116476591       ,        0.0 ,        0.0 , 0.0
 0.0 ,0.0 ,           0.0 ,            0.0 ,            0.0 ,            0.0 ,              0.0 ,                   0.0 , 787.0 ,15.71042 ,-4.315689 ,           0.0 ,           0.0 ,       0.0 ,142.4662       ,-18.56231   ,-0.01118108      ,-0.0005462293    ,                 0.0 ,             0.0 ,             0.0 ,                 0.0 ,                 0.0 ,        0.0 ,0.496712483506948      ,            0.0 ,            0.0 ,            0.0 ,              0.0 ,                   0.0 ,  0.0 ,0.0 , 666.5079287729094   ,0.9999999999999999 ,0.0 ,-37.97243980042745  ,-82.75818844576638  ,-1.4262064905734033     ,-40.738576904504725 ,          0.0 ,          0.0 ,-37.92704764430191  ,-82.8035856250982   ,-40.738576904504725 ,-161.4692152338548  , 25.139595958152796  , 53.82306674655173  , 43.543052799283274  ,-32.975457969087095   ,-77.7612116376323   ,-1.4262064905734033     ,-35.741595073164376 ,          0.0 ,          0.0 ,-32.93006581296156   ,-77.80660379375784  ,-35.741595073164376 ,-146.4782597417656  , 25.139595958152796  , 48.826089882336206  , 43.543052799283274  ,1.8166469311417848e-06  ,-1.1214620471749985e-06 ,-1.6681850336588766e-06 ,      0.0 ,      0.0 ,      0.0 ,2.03692103592771e-06    ,-1.3417366486734072e-06 ,      0.0 ,6.951843872543027e-07   ,1.701206976274902e-06  ,0.2437771623567      ,0.016689152547461242    ,6.426043720811285e-07   ,-3.3380545124242407e-07 ,5.017367302776208e-08  ,68.38687874196175      ,0.0 ,75.84514159304898     ,2.515053592268206       ,        0.0 ,        0.0 , 0.0
 0.0 ,0.0 ,           0.0 ,            0.0 ,            0.0 ,            0.0 ,              0.0 ,                   0.0 , 788.0 ,17.5908  ,-4.347118 ,           0.0 ,           0.0 ,       0.0 ,142.606        ,-18.60772   ,-0.01102034      ,-0.0004780403    ,                 0.0 ,             0.0 ,             0.0 ,                 0.0 ,                 0.0 ,        0.0 ,1.0168706780234447     ,            0.0 ,            0.0 ,            0.0 ,              0.0 ,                   0.0 ,  0.0 ,0.0 , 668.6429003751829   ,1.0                ,0.0 ,-38.85057228214581  ,-83.26911523793713  ,-1.4616303500231527     ,-41.11136630811771  ,          0.0 ,          0.0 ,-38.80250025832576  ,-83.31719720063671  ,-41.11136630811771  ,-163.2310487266907  , 25.062896269138268  , 54.41035293498925  , 43.41021522395384   ,-33.853604252214126   ,-78.272152245893    ,-1.4616303500231527     ,-36.114393377194055 ,          0.0 ,          0.0 ,-33.80553222839407   ,-78.32022426971307  ,-36.114393377194055 ,-148.24014007331724 , 25.062896269138268  , 49.413384966178036  , 43.41021522395384   ,2.593101615662795e-07   ,-6.055379781717043e-07  ,-1.5763752463733184e-06 ,      0.0 ,      0.0 ,      0.0 ,7.285026337645887e-07   ,-1.074730599233387e-06  ,      0.0 ,-3.4622771980799466e-07 ,9.074689686784774e-07  ,0.24068458481054814  ,0.016676193254742965    ,4.6159449431904607e-07  ,-2.53362489994844e-07   ,8.52360415033651e-08   ,68.00530504164787      ,0.0 ,76.0558465349325      ,2.5175636610682672      ,        0.0 ,        0.0 , 0.0
 0.0 ,0.0 ,           0.0 ,            0.0 ,            0.0 ,            0.0 ,              0.0 ,                   0.0 , 789.0 ,19.49301 ,-4.365939 ,           0.0 ,           0.0 ,       0.0 ,142.7405       ,-18.63999   ,-0.01104194      ,-0.0005681298    ,                 0.0 ,             0.0 ,             0.0 ,                 0.0 ,                 0.0 ,        0.0 ,3.98854143825308       ,            0.0 ,            0.0 ,            0.0 ,              0.0 ,                   0.0 ,  0.0 ,0.0 , 681.099912757859    ,1.0                ,0.0 ,-39.5264219943622   ,-83.56595586132258  ,-1.5061751587366998     ,-41.37108089788655  ,          0.0 ,          0.0 ,-39.47495760435148  ,-83.61742521112687  ,-41.37108089788655  ,-164.46342898274256 , 24.958286926652782  , 54.82115457112164  , 43.22902527148492   ,-34.529389214083224   ,-78.56892806395724  ,-1.5061751587366998     ,-36.374053100521216 ,          0.0 ,          0.0 ,-34.477919864278945  ,-78.62039245396798  ,-36.374053100521216 ,-149.47237053938747 , 24.958286926652782  , 49.82412181396275   , 43.22902527148492   ,2.0571094039883385e-06  ,-1.5353862754945737e-06 ,-3.237251821549484e-06  ,      0.0 ,      0.0 ,      0.0 ,2.75606549173899e-06    ,-2.2343418655470864e-06 ,      0.0 ,5.217233755586381e-07   ,2.5012126795969564e-06 ,0.2351456659155358   ,0.01611359208985965     ,-4.1726386734320864e-08 ,-1.1811687852559587e-09 ,5.939503624098843e-08  ,68.84029232163932      ,0.0 ,77.0044027518212      ,2.4901537901039172      ,        0.0 ,        0.0 , 0.0
 0.0 ,0.0 ,           0.0 ,            0.0 ,            0.0 ,            0.0 ,              0.0 ,                   0.0 , 790.0 ,21.40893 ,-4.379088 ,           0.0 ,           0.0 ,       0.0 ,142.8341       ,-18.6625    ,-0.0110465       ,-0.0006040083    ,                 0.0 ,             0.0 ,             0.0 ,                 0.0 ,                 0.0 ,        0.0 ,0.9978386260486453     ,            0.0 ,            0.0 ,            0.0 ,              0.0 ,                   0.0 ,  0.0 ,0.0 , 682.6045736970807   ,1.0                ,0.0 ,-40.3002046620915   ,-83.79264744985727  ,-1.4794268734870646     ,-41.60465970694423  ,          0.0 ,          0.0 ,-40.249933957152926 ,-83.84291319576079  ,-41.60465970694423  ,-165.6975365406828  , 24.7879884430921    , 55.23250230387658  , 42.9340596693025    ,-35.303251686983636   ,-78.7956944747494   ,-1.4794268734870646     ,-36.607706731836366 ,          0.0 ,          0.0 ,-35.252985941080134  ,-78.8459602724247   ,-36.607706731836366 ,-150.70667785260446 , 24.7879884430921    , 50.23554932876871   , 42.9340596693025    ,9.883811115509562e-08   ,-4.78632804729372e-07   ,-1.1346637552103744e-06 ,      0.0 ,      0.0 ,      0.0 ,4.466822613829508e-07   ,-8.264768052814332e-07  ,      0.0 ,-3.7979469357427634e-07 ,6.459518324112165e-07  ,0.24977452538537714  ,0.018474295545924682    ,1.8055893329617536e-07  ,-1.426270556215442e-07  ,6.252089221219978e-08  ,77.68980647938245      ,0.0 ,66.51102468203203     ,2.4777962543010728      ,        0.0 ,        0.0 , 0.0
 0.0 ,0.0 ,           0.0 ,            0.0 ,            0.0 ,            0.0 ,              0.0 ,                   0.0 , 791.0 ,23.33351 ,-4.389797 ,           0.0 ,           0.0 ,       0.0 ,142.8809       ,-18.67789   ,-0.01089987      ,-0.0006595008    ,                 0.0 ,             0.0 ,             0.0 ,                 0.0 ,                 0.0 ,        0.0 ,0.49592609665275256    ,            0.0 ,            0.0 ,            0.0 ,              0.0 ,                   0.0 ,  0.0 ,0.0 , 684.107074054355    ,1.0                ,0.0 ,-40.985255604321395 ,-83.98054018672599  ,-1.5009859131667767     ,-41.80972402286167  ,          0.0 ,          0.0 ,-40.9328704803405   ,-84.03293522922885  ,-41.80972402286167  ,-166.77553448223398 , 24.635521495017002  , 55.591844908889385 , 42.669966634152395  ,-35.988283078501325   ,-78.98356766090592  ,-1.5009859131667767     ,-36.8127514970416   ,          0.0 ,          0.0 ,-35.935897954520414  ,-79.035957779124    ,-36.8127514970416   ,-151.78462714920795 , 24.635521495017002  , 50.594872383069315  , 42.669966634152395  ,3.492272394467048e-07   ,-2.8494356305723673e-07 ,-2.1656284281288158e-06 ,      0.0 ,      0.0 ,      0.0 ,1.1604283839319021e-06  ,-1.0961444595793858e-06 ,      0.0 ,6.428367638946808e-08   ,1.1284386710673163e-06 ,0.03650376398550054  ,0.00015341900341415206  ,-9.290357795940277e-08  ,-6.143906131498521e-10  ,2.3530734274906236e-07 ,143.453224140729       ,0.0 ,0.7048381455608683    ,0.023238295844382258    ,        0.0 ,        0.0 , 0.0
 0.0 ,0.0 ,           0.0 ,            0.0 ,            0.0 ,            0.0 ,              0.0 ,                   0.0 , 792.0 ,25.26356 ,-4.399544 ,           0.0 ,           0.0 ,       0.0 ,142.8856       ,-18.68811   ,-0.01053153      ,-0.0006886219    ,                 0.0 ,             0.0 ,             0.0 ,                 0.0 ,                 0.0 ,        0.0 ,1.0004037406265045     ,            0.0 ,            0.0 ,            0.0 ,              0.0 ,                   0.0 ,  0.0 ,0.0 , 685.6080310034735   ,1.0                ,0.0 ,-41.74173667167524  ,-84.17075886071669  ,-1.4926310520997164     ,-42.03252742901207  ,          0.0 ,          0.0 ,-41.68924951173726  ,-84.22324106051663  ,-42.03252742901207  ,-167.94496837011704 , 24.45919072961466   , 55.981667692990385 , 42.364559695396245  ,-36.74477874560332    ,-79.17378109409258  ,-1.4926310520997164     ,-37.03556950294015  ,          0.0 ,          0.0 ,-36.69229158566535   ,-79.22626825403056  ,-37.03556950294015  ,-152.9541095399271  , 24.45919072961466   , 50.98470980879912   , 42.364559695396245  ,-9.779263473115169e-07  ,1.448642737997731e-07   ,-1.8444113714797607e-06 ,      0.0 ,      0.0 ,      0.0 ,6.631607430803622e-07   ,-1.4962226677879646e-06 ,      0.0 ,-8.330619226135698e-07  ,1.1061576478318116e-06 ,0.22283167332189785  ,0.016478099103237043    ,1.0333280946842908e-07  ,-6.603417855103357e-08  ,9.029879998750369e-08  ,68.16672629538863      ,0.0 ,75.75540211287972     ,2.49763219711725        ,        0.0 ,        0.0 , 0.0
 0.0 ,0.0 ,           0.0 ,            0.0 ,            0.0 ,            0.0 ,              0.0 ,                   0.0 , 793.0 ,27.19699 ,-4.408987 ,           0.0 ,           0.0 ,       0.0 ,142.856        ,-18.69459   ,-0.01056246      ,-0.0008146284    ,                 0.0 ,             0.0 ,             0.0 ,                 0.0 ,                 0.0 ,        0.0 ,2.9998332257661375     ,            0.0 ,            0.0 ,            0.0 ,              0.0 ,                   0.0 ,  0.0 ,0.0 , 687.1077949658927   ,1.0                ,0.0 ,-42.45893626456456  ,-84.34486779154201  ,-1.5151849092407357     ,-42.242024002136176 ,          0.0 ,          0.0 ,-42.404190466616654 ,-84.39961362721382  ,-42.242024002136176 ,-169.04584798279498 , 24.293304570322825  , 56.34861101858038  , 42.07723963697417   ,-37.461933488405535   ,-79.34787493826745  ,-1.5151849092407357     ,-37.245026187419384 ,          0.0 ,          0.0 ,-37.40719261417596   ,-79.40262073621535  ,-37.245026187419384 ,-154.0548395000868  , 24.293304570322825  , 51.35161320553132   , 42.07723963697417   ,-1.561611719848277e-06  ,2.589701756444903e-07   ,-3.4648608286652684e-06 ,      0.0 ,      0.0 ,      0.0 ,1.3294026639713341e-06  ,-2.6320440566911815e-06 ,      0.0 ,-1.3026411434326315e-06 ,2.0208979195738544e-06 ,0.24241776787829125  ,0.018193878073301636    ,-6.152057552262688e-08  ,-5.261167922568135e-10  ,6.302328445510119e-08  ,77.46926648884302      ,0.0 ,67.60312347055684     ,2.479052584810708       ,        0.0 ,        0.0 , 0.0
 0.0 ,0.0 ,           0.0 ,            0.0 ,            0.0 ,            0.0 ,              0.0 ,                   0.0 , 794.0 ,29.1324  ,-4.418408 ,           0.0 ,           0.0 ,       0.0 ,142.7995       ,-18.69836   ,-0.01038775      ,-0.0002026653    ,                 0.0 ,             0.0 ,             0.0 ,                 0.0 ,                 0.0 ,        0.0 ,2.0011848426443652     ,            0.0 ,            0.0 ,            0.0 ,              0.0 ,                   0.0 ,  0.0 ,0.0 , 688.6066193722486   ,1.0                ,0.0 ,-43.107251606246905 ,-84.512396408408    ,-1.4834223886760005     ,-42.43239228509617  ,          0.0 ,          0.0 ,-43.054158774346135 ,-84.56547938818711  ,-42.43239228509617  ,-170.05204516075906 , 24.148149640617294  , 56.684015114214965 , 41.82582277500666   ,-38.110313735892085   ,-79.51544364896193  ,-1.4834223886760005     ,-37.43545441474136  ,          0.0 ,          0.0 ,-38.05721093799879   ,-79.5685364808627   ,-37.43545441474136  ,-155.06118693858735 , 24.148149640617294  , 51.68706727786761   , 41.82582277500666   ,-5.769000655488857e-07  ,1.1224110465446837e-07  ,-1.5699770371945173e-06 ,      0.0 ,      0.0 ,      0.0 ,6.249545171753048e-07   ,-1.0896131278623746e-06 ,      0.0 ,-4.6465871074631195e-07 ,8.677142480668075e-07  ,0.03487966256545674  ,-2.367525115539014e-08  ,-3.668925903356292e-08  ,0.0                     ,8.364388864869952e-08  ,143.96436784836885     ,0.0 ,0.0                   ,0.0                     ,        0.0 ,        0.0 , 0.0
 0.0 ,0.0 ,           0.0 ,            0.0 ,            0.0 ,            0.0 ,              0.0 ,                   0.0 , 795.0 ,31.06874 ,-4.427938 ,           0.0 ,           0.0 ,       0.0 ,142.7223       ,-18.70017   ,-0.0101612       ,-0.0001572803    ,                 0.0 ,             0.0 ,             0.0 ,                 0.0 ,                 0.0 ,        0.0 ,0.9929716691628115     ,            0.0 ,            0.0 ,            0.0 ,              0.0 ,                   0.0 ,  0.0 ,0.0 , 690.104493961834    ,0.9999999999999999 ,0.0 ,-43.836349485258545 ,-84.69607747655647  ,-1.4938590198137036     ,-42.646094064168864 ,          0.0 ,          0.0 ,-43.78179390291284  ,-84.75062813384048  ,-42.646094064168864 ,-171.17851581978894 , 23.98797645508671   , 57.0595053537085   , 41.54839347448673   ,-38.839402130767716   ,-79.69912512672065  ,-1.4938590198137036     ,-37.64915167453637  ,          0.0 ,          0.0 ,-38.78485151328036   ,-79.75368073955299  ,-37.64915167453637  ,-156.1877087914581  , 23.98797645508671   , 52.06256296407602   , 41.54839347448673   ,-1.6233393774116046e-06 ,4.848112680727248e-07   ,-1.672354941430654e-06  ,      0.0 ,      0.0 ,      0.0 ,7.761980100112165e-07   ,-1.9147259207557627e-06 ,      0.0 ,-1.138527910744546e-06  ,1.3850227014116878e-06 ,0.0349031631138736   ,-7.161485667728147e-08  ,-2.3724028896778822e-08 ,0.0                     ,1.2236553602243e-07    ,143.61579122782575     ,0.0 ,0.0                   ,0.0                     ,        0.0 ,        0.0 , 0.0
 0.0 ,0.0 ,           0.0 ,            0.0 ,            0.0 ,            0.0 ,              0.0 ,                   0.0 , 796.0 ,33.00513 ,-4.437641 ,           0.0 ,           0.0 ,       0.0 ,142.6292       ,-18.70056   ,-0.01000238      ,-0.0001035224    ,                 0.0 ,             0.0 ,             0.0 ,                 0.0 ,                 0.0 ,        0.0 ,0.9960904972671818     ,            0.0 ,            0.0 ,            0.0 ,              0.0 ,                   0.0 ,  0.0 ,0.0 , 691.6012520089045   ,1.0                ,0.0 ,-44.52564543751264  ,-84.90242188686327  ,-1.5145871900445451     ,-42.858974786535754 ,          0.0 ,          0.0 ,-44.468900851236285 ,-84.9591714400878   ,-42.858974786535754 ,-172.28699719798072 , 23.85539625989688   , 57.42901074367751  , 41.31876525947972   ,-39.52870794086794    ,-79.90546451033946  ,-1.5145871900445451     ,-37.86203728989105  ,          0.0 ,          0.0 ,-39.47196335459159   ,-79.9622140756504   ,-37.86203728989105  ,-157.29618977735768 , 23.85539625989688   , 52.43207324703282   , 41.31876525947972   ,-1.8215446382953426e-06 ,5.645826986002001e-07   ,-1.5812440578251181e-06 ,      0.0 ,      0.0 ,      0.0 ,8.028733386771124e-07   ,-2.0598347822176095e-06 ,      0.0 ,-1.256961443540497e-06  ,1.4766347609690818e-06 ,0.24258376509424262  ,0.01842878618875101     ,-1.088800207865488e-07  ,-1.768530212645142e-10  ,1.7718794808539643e-08 ,75.87224168958173      ,0.0 ,67.62468699101038     ,2.4952775352996444      ,        0.0 ,        0.0 , 0.0
 0.0 ,0.0 ,           0.0 ,            0.0 ,            0.0 ,            0.0 ,              0.0 ,                   0.0 , 797.0 ,34.94073 ,-4.447548 ,           0.0 ,           0.0 ,       0.0 ,142.5238       ,-18.69992   ,-0.009841386     ,-4.26378e-05     ,                 0.0 ,             0.0 ,             0.0 ,                 0.0 ,                 0.0 ,        0.0 ,1.9962052821445846     ,            0.0 ,            0.0 ,            0.0 ,              0.0 ,                   0.0 ,  0.0 ,0.0 , 693.0965096732973   ,1.0                ,0.0 ,-45.280458181424024 ,-85.10842535914347  ,-1.5669280876479943     ,-43.08519837435907  ,          0.0 ,          0.0 ,-45.21889941645105  ,-85.17001888650715  ,-43.08519837435907  ,-173.47408183903218 , 23.70588017467347   , 57.82470227148213  , 41.05979470011696   ,-40.283505717373636   ,-80.11149777995332  ,-1.5669280876479943     ,-38.08824591030868  ,          0.0 ,          0.0 ,-40.221946975688255  ,-80.1730515375965   ,-38.08824591030868  ,-158.48322441756184 , 23.70588017467347   , 52.827749830719334  , 41.05979470011696   ,-3.7467465679321285e-06 ,1.1452749092574612e-06  ,-2.163836441482562e-06  ,      0.0 ,      0.0 ,      0.0 ,1.4740852060950654e-06  ,-4.0755569649163284e-06 ,      0.0 ,-2.6014717588212635e-06 ,2.877107206628708e-06  ,0.4224162060694845   ,0.03482867385453569     ,-1.8454071493730586e-07 ,-4.163656481576768e-10  ,0.0                    ,1.8454137167033317e-07 ,0.0 ,144.12554528660917    ,4.996952453269391       ,        0.0 ,        0.0 , 0.0
 0.0 ,0.0 ,           0.0 ,            0.0 ,            0.0 ,            0.0 ,              0.0 ,                   0.0 , 798.0 ,36.87459 ,-4.457635 ,           0.0 ,           0.0 ,       0.0 ,142.4089       ,-18.69852   ,-0.009657743     ,2.161382e-05     ,                 0.0 ,             0.0 ,             0.0 ,                 0.0 ,                 0.0 ,        0.0 ,1.9962106488957563     ,            0.0 ,            0.0 ,            0.0 ,              0.0 ,                   0.0 ,  0.0 ,0.0 , 694.5915100742063   ,1.0                ,0.0 ,-45.98382970952935  ,-85.30570907303812  ,-1.631679852186621      ,-43.29661572901124  ,          0.0 ,          0.0 ,-45.91623218770526  ,-85.37333641126915  ,-43.29661572901124  ,-174.5861694095745  , 23.5737962702119    , 58.19538980368104  , 40.83101192846723   ,-40.986872710348365   ,-80.30877693542801  ,-1.631679852186621      ,-38.299658729830256 ,          0.0 ,          0.0 ,-40.91928017831658   ,-80.37637445725211  ,-38.299658729830256 ,-159.5953134207706  , 23.5737962702119    , 53.19844278555328   , 40.83101192846723   ,-4.259700982137854e-06  ,1.2782532891771544e-06  ,-2.3077360544370034e-06 ,      0.0 ,      0.0 ,      0.0 ,1.5126361048816154e-06  ,-4.494083797842315e-06  ,      0.0 ,-2.9814476929606994e-06 ,3.1243362995363035e-06 ,0.42069855044014803  ,0.034762776069488605    ,-1.5703793810795815e-07 ,-5.212750626701022e-10  ,7.115463509371825e-11  ,0.286806668716549      ,0.0 ,143.77590038184434    ,4.987486794031499       ,        0.0 ,        0.0 , 0.0
 0.0 ,0.0 ,           0.0 ,            0.0 ,            0.0 ,            0.0 ,              0.0 ,                   0.0 , 799.0 ,38.8056  ,-4.46775  ,           0.0 ,           0.0 ,       0.0 ,142.2881       ,-18.69656   ,-0.009417304     ,9.381216e-05     ,                 0.0 ,             0.0 ,             0.0 ,                 0.0 ,                 0.0 ,        0.0 ,0.49896372960380386    ,            0.0 ,            0.0 ,            0.0 ,              0.0 ,                   0.0 ,  0.0 ,0.0 , 696.5836038442557   ,1.0                ,0.0 ,-46.577071632020726 ,-85.47612054844357  ,-1.6859487102720223     ,-43.473506111562344 ,          0.0 ,          0.0 ,-46.50413610782904  ,-85.54904615525851  ,-43.473506111562344 ,-175.52665343318628 , 23.46727974707473   , 58.50889281218257  , 40.646516166862305  ,-41.580139898046      ,-80.47917387300525  ,-1.6859487102720223     ,-38.47657436386347  ,          0.0 ,          0.0 ,-41.50719934976746   ,-80.55210941092106  ,-38.47657436386347  ,-160.53589810046518 , 23.46727974707473   , 53.51196604039686   , 40.646516166862305  ,-1.7160240640813524e-06 ,5.17773921919246e-07    ,-1.615230028310392e-06  ,      0.0 ,      0.0 ,      0.0 ,7.792435471754682e-07   ,-1.9774941883013042e-06 ,      0.0 ,-1.1982501421621067e-06 ,1.4211132684052685e-06 ,0.2414630785412616   ,0.01842185396482706     ,-6.147159036707348e-08  ,-1.5428575834014606e-10 ,1.8816442186542665e-08 ,75.84436548615132      ,0.0 ,67.53002216896265     ,2.4931177257723434      ,        0.0 ,        0.0 , 0.0
 0.0 ,0.0 ,           0.0 ,            0.0 ,            0.0 ,            0.0 ,              0.0 ,                   0.0 , 800.0 ,40.73231 ,-4.477484 ,           0.0 ,           0.0 ,       0.0 ,142.1668       ,-18.69417   ,-0.009064896     ,0.000169537      ,                 0.0 ,             0.0 ,             0.0 ,                 0.0 ,                 0.0 ,        0.0 ,1.4980309739385596     ,            0.0 ,            0.0 ,            0.0 ,              0.0 ,                   0.0 ,  0.0 ,0.0 , 698.5710812164573   ,1.0                ,0.0 ,-47.361516298033635 ,-85.58241490578217  ,-1.7351082172954322     ,-43.663541382717945 ,          0.0 ,          0.0 ,-47.28277296141469  ,-85.66117319054803  ,-43.663541382717945 ,-176.60748742375677 , 23.2748573780124    , 58.86916749777912  , 40.313243687268596  ,-42.36456974250305    ,-80.5854832518003   ,-1.7351082172954322     ,-38.6665898074971   ,          0.0 ,          0.0 ,-42.285821386193845  ,-80.66423658841924  ,-38.6665898074971   ,-161.61663289499683 , 23.2748573780124    , 53.87221592977595   , 40.313243687268596  ,-4.304624142865508e-06  ,1.1748582267554003e-06  ,-2.0930920521061793e-06 ,      0.0 ,      0.0 ,      0.0 ,1.3727782449189326e-06  ,-4.502544662998067e-06  ,      0.0 ,-3.1297654180791347e-06 ,3.0735135493994847e-06 ,0.21331836768234944  ,0.016320165326291595    ,-3.8303056813669445e-08 ,-7.502318084052199e-11  ,9.452062508819293e-08  ,67.09309354335127      ,0.0 ,76.93368476423335     ,2.5049074833149714      ,        0.0 ,        0.0 , 0.0
 0.0 ,0.0 ,           0.0 ,            0.0 ,            0.0 ,            0.0 ,              0.0 ,                   0.0 , 801.0 ,42.65279 ,-4.485979 ,           0.0 ,           0.0 ,       0.0 ,142.0547       ,-18.69145   ,-0.008606577     ,0.0002451311     ,                 0.0 ,             0.0 ,             0.0 ,                 0.0 ,                 0.0 ,        0.0 ,1.4985520034436803     ,            0.0 ,            0.0 ,            0.0 ,              0.0 ,                   0.0 ,  0.0 ,0.0 , 700.5534991698573   ,1.0                ,0.0 ,-48.04236020184061  ,-85.5791536381786   ,-1.7197327948287227     ,-43.790068132002745 ,          0.0 ,          0.0 ,-47.963388744483936 ,-85.65809023429226  ,-43.790068132002745 ,-177.41158194689714 , 23.065263705873242  , 59.137184012537354 , 39.95021249140717   ,-43.04542402742934    ,-80.58218752859044  ,-1.7197327948287227     ,-38.79312195835851  ,          0.0 ,          0.0 ,-42.9664425708397    ,-80.6611640011941   ,-38.79312195835851  ,-162.42072861650504 , 23.065263705873242  , 54.14024285337308   , 39.95021249140717   ,-4.603486047383767e-06  ,1.18325602033316e-06    ,-1.736348448217752e-06  ,      0.0 ,      0.0 ,      0.0 ,1.3153671551616822e-06  ,-4.735597683660286e-06  ,      0.0 ,-3.4202300269739043e-06 ,3.1825122299053857e-06 ,0.0348819048797423   ,-1.3315389136407877e-07 ,-3.6553657611743907e-10 ,0.0                     ,1.3315439086158284e-07 ,143.88503778344216     ,0.0 ,0.0                   ,0.0                     ,        0.0 ,        0.0 , 0.0
 0.0 ,0.0 ,           0.0 ,            0.0 ,            0.0 ,            0.0 ,              0.0 ,                   0.0 , 802.0 ,44.56428 ,-4.491701 ,           0.0 ,           0.0 ,       0.0 ,141.968        ,-18.6885    ,-0.007937809     ,0.0003482423     ,                 0.0 ,             0.0 ,             0.0 ,                 0.0 ,                 0.0 ,        0.0 ,1.997213972026086      ,            0.0 ,            0.0 ,            0.0 ,              0.0 ,                   0.0 ,  0.0 ,0.0 , 702.0318043132006   ,1.0                ,0.0 ,-48.70980046440661  ,-85.4307623220351   ,-1.5490339112213616     ,-43.85583858718654  ,          0.0 ,          0.0 ,-48.64360593985944  ,-85.49696174284871  ,-43.85583858718654  ,-177.99638134960304 , 22.78957020440575   , 59.332132094764944 , 39.47269526927806   ,-43.71288966788873    ,-80.43384646404408  ,-1.5490339112213616     ,-38.85891779066866  ,          0.0 ,          0.0 ,-43.64669513277645   ,-80.50004098859125  ,-38.85891779066866  ,-163.00567878427756 , 22.78957020440575   , 54.33522128768196   , 39.47269526927806   ,-4.99516975767929e-06   ,1.2650831170159317e-06  ,-6.351390691448791e-07  ,      0.0 ,      0.0 ,      0.0 ,1.3239462255080813e-06  ,-5.054032868957468e-06  ,      0.0 ,-3.7300871415281173e-06 ,3.3658899829590273e-06 ,0.415014981940322    ,0.035002334750428125    ,-1.9000033987227455e-07 ,-3.5421152345700616e-10 ,2.0155703200675222e-10 ,0.14190925701276552    ,0.0 ,143.15999124479305    ,4.991635405730049       ,        0.0 ,        0.0 , 0.0
 0.0 ,0.0 ,           0.0 ,            0.0 ,            0.0 ,            0.0 ,              0.0 ,                   0.0 , 803.0 ,46.46247 ,-4.492412 ,           0.0 ,           0.0 ,       0.0 ,141.9296       ,-18.68537   ,-0.00663741      ,0.0004478203     ,                 0.0 ,             0.0 ,             0.0 ,                 0.0 ,                 0.0 ,        0.0 ,1.4989359813170642     ,            0.0 ,            0.0 ,            0.0 ,              0.0 ,                   0.0 ,  0.0 ,0.0 , 704.0122038166533   ,1.0                ,0.0 ,-49.18393289592581  ,-85.20772224657267  ,-1.1728628354829012     ,-43.844354266247244 ,          0.0 ,          0.0 ,-49.144087714798786 ,-85.2475873540198   ,-43.844354266247244 ,-178.23599453272777 , 22.535181361543785  , 59.41200148398481  , 39.03207741541617   ,-44.18706261928095    ,-80.21085194300335  ,-1.1728628354829012     ,-38.84747896622467  ,          0.0 ,          0.0 ,-44.1472124346072    ,-80.25069715105482  ,-38.84747896622467  ,-163.24539368151284 , 22.535181361543785  , 54.41513118041551   , 39.03207741541617   ,-2.6485113530356462e-06 ,7.253219732909442e-07   ,3.4147203163378616e-07  ,      0.0 ,      0.0 ,      0.0 ,7.339484322415863e-07   ,-2.6571378100031896e-06 ,      0.0 ,-1.9231893797447022e-06 ,1.7841214866961696e-06 ,0.23867153905396377  ,0.018750169537189568    ,-1.5471210140033671e-07 ,7.200102144287891e-11   ,2.974945269051543e-08  ,75.62210434968357      ,0.0 ,66.524526656207       ,2.4964668946018693      ,        0.0 ,        0.0 , 0.0
 0.0 ,0.0 ,           0.0 ,            0.0 ,            0.0 ,            0.0 ,              0.0 ,                   0.0 , 804.0 ,48.33656 ,-4.487494 ,           0.0 ,           0.0 ,       0.0 ,141.9463       ,-18.68212   ,-0.00431161      ,0.000686598      ,                 0.0 ,             0.0 ,             0.0 ,                 0.0 ,                 0.0 ,        0.0 ,1.5086262478812285     ,            0.0 ,            0.0 ,            0.0 ,              0.0 ,                   0.0 ,  0.0 ,0.0 , 707.4624322416043   ,1.0                ,0.0 ,-49.61995639273897  ,-84.8851893484759   ,-0.6070404645527572     ,-43.79100687345861  ,          0.0 ,          0.0 ,-49.6068149451598   ,-84.89832602267433  ,-43.79100687345861  ,-178.29612255327044 , 22.253095328319155  , 59.43204257770138  , 38.54348959542735   ,-44.623012361962644   ,-79.88823048291582  ,-0.6070404645527572     ,-38.794067835373575 ,          0.0 ,          0.0 ,-44.609870914383464  ,-79.90137188370939  ,-38.794067835373575 ,-163.3053255647547  , 22.253095328319155  , 54.43510358640192   , 38.54348959542735   ,-5.23141141949045e-06   ,1.4428007036674322e-06  ,-8.606234822564424e-07  ,      0.0 ,      0.0 ,      0.0 ,1.479427666223689e-06   ,-5.268038878099019e-06  ,      0.0 ,-3.7886107158230175e-06 ,3.5469197058641795e-06 ,0.23810238913052223  ,0.018547241880696015    ,-5.70504142521143e-08   ,-8.417556339782036e-11  ,6.491552133731989e-08  ,76.16051005794405      ,0.0 ,67.54612895528311     ,2.501936418119321       ,        0.0 ,        0.0 , 0.0
 0.0 ,0.0 ,           0.0 ,            0.0 ,            0.0 ,            0.0 ,              0.0 ,                   0.0 , 805.0 ,50.1657  ,-4.478449 ,           0.0 ,           0.0 ,       0.0 ,142.0039       ,-18.67884   ,-0.001615221     ,0.0003298951     ,                 0.0 ,             0.0 ,             0.0 ,                 0.0 ,                 0.0 ,        0.0 ,1.5031262958679474     ,            0.0 ,            0.0 ,            0.0 ,              0.0 ,                   0.0 ,  0.0 ,0.0 , 708.3327377253661   ,1.0                ,0.0 ,-49.71497838655412  ,-84.89839002233873  ,-0.04010418167496489    ,-43.800027739052155 ,          0.0 ,          0.0 ,-49.713695263856    ,-84.89968281188301  ,-43.800027739052155 ,-178.4134105754262  , 22.229892970847082  , 59.47114005991548  , 38.50329909666583   ,-44.71809991752227    ,-79.90152585280418  ,-0.04010418167496489    ,-38.80315417036735  ,          0.0 ,          0.0 ,-44.716821760629145  ,-79.90280897550231  ,-38.80315417036735  ,-163.42276510873674 , 22.229892970847082  , 54.47426159088362   , 38.50329909666583   ,-2.9026353237977817e-06 ,7.896211785592388e-07   ,3.076993513794821e-07   ,      0.0 ,      0.0 ,      0.0 ,7.9778971476139e-07     ,-2.9108043699652277e-06 ,      0.0 ,-2.113014641819043e-06  ,1.9520549099945566e-06 ,0.21252338180444874  ,0.016879424510807192    ,-1.0604029167924869e-07 ,6.66494940665337e-11    ,4.811097029343287e-08  ,65.18794481531019      ,0.0 ,77.01988262422792     ,2.5484288729485227      ,        0.0 ,        0.0 , 0.0
 0.0 ,0.0 ,           0.0 ,            0.0 ,            0.0 ,            0.0 ,              0.0 ,                   0.0 , 806.0 ,51.90354 ,-4.476598 ,           0.0 ,           0.0 ,       0.0 ,141.9903       ,-18.67563   ,0.003765228      ,0.001844176      ,                 0.0 ,             0.0 ,             0.0 ,                 0.0 ,                 0.0 ,        0.0 ,0.5363430676950857     ,            0.0 ,            0.0 ,            0.0 ,              0.0 ,                   0.0 ,  0.0 ,0.0 , 711.1000842802206   ,1.0                ,0.0 ,-49.604144083603224 ,-84.71872707532265  ,0.5937012686684437      ,-43.730094431458134 ,          0.0 ,          0.0 ,-49.585224881303404 ,-84.73765983379278  ,-43.730094431458134 ,-178.05296307604834 , 22.187592490185473  , 59.350996139897646 , 38.430038254665234  ,-44.607229607154      ,-79.72182650858139  ,0.5937012686684437      ,-38.73318351117921  ,          0.0 ,          0.0 ,-44.58831040485418   ,-79.74074891351384  ,-38.73318351117921  ,-163.06225424470557 , 22.187592490185473  , 54.354081663448426  , 38.430038254665234  ,-2.9319645486458853e-06 ,7.908601437581836e-07   ,-3.02921070370281e-07   ,      0.0 ,      0.0 ,      0.0 ,7.972401127843186e-07   ,-2.9383445176720198e-06 ,      0.0 ,-2.141104404887701e-06  ,1.967411624954736e-06  ,0.07235508600645546  ,0.0035294124124895885   ,-1.0293227480354447e-08 ,-2.0909232227069377e-11 ,7.942176026154486e-08  ,126.59483852623008     ,0.0 ,16.527014980429232    ,0.5399111487452125      ,        0.0 ,        0.0 , 0.0
 0.0 ,0.0 ,           0.0 ,            0.0 ,            0.0 ,            0.0 ,              0.0 ,                   0.0 , 807.0 ,53.3857  ,-4.495482 ,           0.0 ,           0.0 ,       0.0 ,141.7735       ,-18.67284   ,0.009171746      ,0.0006391907     ,                 0.0 ,             0.0 ,             0.0 ,                 0.0 ,                 0.0 ,        0.0 ,0.33898934352694027    ,            0.0 ,            0.0 ,            0.0 ,              0.0 ,                   0.0 ,  0.0 ,0.0 , 703.0052855732748   ,1.0                ,0.0 ,-48.70838396593377  ,-84.86823946136492  ,1.115664778208826       ,-43.62025224332917  ,          0.0 ,          0.0 ,-48.6692453780251   ,-84.90738393151587  ,-43.62025224332917  ,-177.19688854221113 , 22.531764480845936  , 59.06562980305037  , 39.02616980323198   ,-43.7114825843591     ,-79.87133645438139  ,1.115664778208826       ,-38.623346743996784 ,          0.0 ,          0.0 ,-43.6723386325183    ,-79.91048379611563  ,-38.623346743996784 ,-162.20619221389433 , 22.531764480845936  , 54.06872305754357   , 39.02616980323198   ,-1.856883282994895e-06  ,4.973010958368002e-07   ,-1.7295500718432446e-07 ,      0.0 ,      0.0 ,      0.0 ,5.004733581135252e-07   ,-1.8600555452716197e-06 ,      0.0 ,-1.3595821871580944e-06 ,1.243809868578087e-06  ,0.03514668103880091  ,-8.683038075339504e-08  ,-1.956970950253325e-09  ,0.0                     ,8.685960402723991e-08  ,142.48822689808367     ,0.0 ,0.0                   ,0.0                     ,        0.0 ,        0.0 , 0.0
 0.0 ,0.0 ,           0.0 ,            0.0 ,            0.0 ,            0.0 ,              0.0 ,                   0.0 , 808.0 ,54.55154 ,-3.190074 ,           0.0 ,           0.0 ,       0.0 ,154.8047       ,-18.67054   ,0.005014995      ,-4.695316e-05    ,                 0.0 ,             0.0 ,             0.0 ,                 0.0 ,                 0.0 ,        0.0 ,2.632244068884619      ,            0.0 ,            0.0 ,            0.0 ,              0.0 ,                   0.0 ,  0.0 ,0.0 , 834.2186417395442   ,1.0                ,0.0 ,-37.87795094001153  ,-61.94675903840021  ,1.128749387017377       ,-32.36464116313942  ,          0.0 ,          0.0 ,-37.534611616318045 ,-62.29010631031958  ,-32.36464116313942  ,-132.18935015372318 , 16.119481899945367  , 44.06311829334265  , 27.919770214849432  ,-32.8805457406078     ,-56.949355275238375 ,1.128749387017377       ,-27.36723976312995  ,          0.0 ,          0.0 ,-32.53720662209172   ,-57.292702341980316 ,-27.36723976312995  ,-117.19716357490832 , 16.119481899945367  , 39.065713914648576  , 27.919770214849432  ,-6.008167303106479e-06  ,8.517302148108489e-07   ,-1.1057789578333149e-07 ,      0.0 ,      0.0 ,      0.0 ,8.587997894074054e-07   ,-6.0152370828804485e-06 ,      0.0 ,-5.15643708829563e-06   ,3.7970185072730006e-06 ,0.052690776877855644 ,0.005551740013343215    ,-1.0610917936389856e-08 ,-1.041689825075563e-11  ,6.940889967419561e-08  ,118.91038422003437     ,0.0 ,37.899673970666406    ,1.0255113809494747      ,        0.0 ,        0.0 , 0.0
 0.0 ,0.0 ,           0.0 ,            0.0 ,            0.0 ,            0.0 ,              0.0 ,                   0.0 , 809.0 ,80.04063 ,-3.981855 ,           0.0 ,           0.0 ,       0.0 ,146.1836       ,-18.60021   ,0.002505935      ,-0.0003644346    ,                 0.0 ,             0.0 ,             0.0 ,                 0.0 ,                 0.0 ,        0.0 ,1.0129379474833735     ,            0.0 ,            0.0 ,            0.0 ,              0.0 ,                   0.0 ,  0.0 ,0.0 , 712.9386962101148   ,1.0                ,0.0 ,-33.07851364707249  ,-77.25180731958483  ,0.30862208858533574     ,-37.57825136741539  ,          0.0 ,          0.0 ,-33.07437672029556  ,-77.2559493110515   ,-37.57825136741539  ,-147.90858615011365 , 24.315766134017952  , 49.30285411135757  , 42.116142264334194  ,-28.081459484356316   ,-72.25475327496163  ,0.30862208858533574     ,-32.581197322792185 ,          0.0 ,          0.0 ,-28.07732267567236   ,-72.25889033111804  ,-32.581197322792185 ,-132.91740095390696 , 24.315766134017952  , 44.30580513142411   , 42.116142264334194  ,-1.4050626465073619e-06 ,3.3564378603476877e-07  ,8.098682704615228e-07   ,      0.0 ,      0.0 ,      0.0 ,4.252404925804784e-07   ,-1.4946592999314494e-06 ,      0.0 ,-1.0694186702586265e-06 ,1.0083694475879001e-06 ,0.034254735228253855 ,-3.7374123725520986e-07 ,-1.5771286206322797e-07 ,0.0                     ,4.0581778626755116e-07 ,146.44447071628753     ,0.0 ,0.0                   ,0.0                     ,        0.0 ,        0.0 , 0.0
 0.0 ,0.0 ,           0.0 ,            0.0 ,            0.0 ,            0.0 ,              0.0 ,                   0.0 , 810.0 ,81.74135 ,-3.821686 ,           0.0 ,           0.0 ,       0.0 ,147.6639       ,-18.58808   ,-0.005506148     ,0.002561914      ,                 0.0 ,             0.0 ,             0.0 ,                 0.0 ,                 0.0 ,        0.0 ,2.0                    ,            0.0 ,            0.0 ,            0.0 ,              0.0 ,                   0.0 ,  0.0 ,0.0 , 715.8520350266235   ,1.0                ,0.0 ,-32.00521829067218  ,-74.47432593028411  ,-0.15841030749834506    ,-36.24462174037748  ,          0.0 ,          0.0 ,-32.00361421937498  ,-74.47592575577002  ,-36.24462174037748  ,-142.72418020714505 , 23.395483247595067  , 47.57471703930568  , 40.52216697588665   ,-27.008090062158125   ,-69.47719710416462  ,-0.15841030749834506    ,-31.24748835528014  ,          0.0 ,          0.0 ,-27.006490236672203  ,-69.47879237067269  ,-31.24748835528014  ,-127.7327852084363  , 23.395483247595067  , 42.57759365420834   , 40.52216697588665   ,-2.5640394959150964e-06 ,6.169124339433142e-07   ,1.8453342622955306e-06  ,      0.0 ,      0.0 ,      0.0 ,8.670743009011966e-07   ,-2.8142015820014286e-06 ,      0.0 ,-1.9471267018727837e-06 ,1.924590842124929e-06  ,0.03384076397363045  ,-6.274090305312201e-07  ,-3.0696314648748283e-07 ,0.0                     ,7.002596893161899e-07  ,148.13110555391063     ,0.0 ,0.0                   ,0.0                     ,        0.0 ,        0.0 , 0.0
 0.0 ,0.0 ,           0.0 ,            0.0 ,            0.0 ,            0.0 ,              0.0 ,                   0.0 , 811.0 ,83.15728 ,-3.622757 ,           0.0 ,           0.0 ,       0.0 ,149.521        ,-18.57486   ,-0.008260481     ,-0.0005530436    ,                 0.0 ,             0.0 ,             0.0 ,                 0.0 ,                 0.0 ,        0.0 ,1.6519263821261778     ,            0.0 ,            0.0 ,            0.0 ,              0.0 ,                   0.0 ,  0.0 ,0.0 , 718.4194367617243   ,1.0                ,0.0 ,-30.79687562143635  ,-71.05648228095843  ,-0.6310916496867377     ,-34.62716567740249  ,          0.0 ,          0.0 ,-30.785295686488276 ,-71.06806221590651  ,-34.62716567740249  ,-136.48052716117073 , 22.232659673427364  , 45.49350577731879  , 38.50808991145125   ,-25.79965161812564    ,-66.05925800622481  ,-0.6310916496867377     ,-29.629935154827955 ,          0.0 ,          0.0 ,-25.78806793101848   ,-66.07083517406815  ,-29.629935154827955 ,-121.48884853133748 , 22.232659673427364  , 40.49628150258517   , 38.50808991145125   ,-2.432369018816715e-06  ,5.937323295932431e-07   ,1.4635301993133448e-06  ,      0.0 ,      0.0 ,      0.0 ,7.78689624204335e-07    ,-2.617326468597175e-06  ,      0.0 ,-1.838636731167148e-06  ,1.7795468016471259e-06 ,0.033287870428345016 ,-6.97308881598383e-07   ,-3.6084445216892764e-07 ,0.0                     ,7.863785029899532e-07  ,150.37898587408986     ,0.0 ,0.0                   ,0.0                     ,        0.0 ,        0.0 , 0.0
 0.0 ,0.0 ,           0.0 ,            0.0 ,            0.0 ,            0.0 ,              0.0 ,                   0.0 , 812.0 ,86.8287  ,-1.980699 ,           0.0 ,           0.0 ,       0.0 ,165.3098       ,-18.51168   ,-0.01386357      ,0.003886922      ,                 0.0 ,             0.0 ,             0.0 ,                 0.0 ,                 0.0 ,        0.0 ,1.8568973200862247     ,            0.0 ,            0.0 ,            0.0 ,              0.0 ,                   0.0 ,  0.0 ,0.0 , 659.4585999099262   ,1.0                ,0.0 ,-15.859481959168008 ,-39.90617754917813  ,-0.9554904635348966     ,-19.14805441304505  ,          0.0 ,          0.0 ,-15.81307536658974  ,-39.95258174864858  ,-19.14805441304505  ,-74.91370195585208  , 13.082772179319726  , 24.97123464046373  , 22.660024164789988  ,-10.861763113904267   ,-34.908452565724055 ,-0.9554904635348966     ,-14.15033400691404  ,          0.0 ,          0.0 ,-10.815354856844882  ,-34.9548667651945   ,-14.15033400691404  ,-59.920553132231746 , 13.082772179319726  , 19.973519657009653  , 22.660024164789988  ,-1.636264361324e-06     ,2.421286640190419e-07   ,1.3551630189419147e-07  ,      0.0 ,      0.0 ,      0.0 ,3.1571895746462833e-07  ,-1.7098547897177153e-06 ,      0.0 ,-1.3941358456583494e-06 ,1.0940172644286156e-06 ,0.28629343786541367  ,0.02257343065838221     ,-5.720239251884266e-07  ,-1.1625407692563307e-07 ,3.907878067766645e-07  ,37.643897599390385     ,0.0 ,128.1455299231996     ,3.80177087776762        ,        0.0 ,        0.0 , 0.0
 0.0 ,0.0 ,           0.0 ,            0.0 ,            0.0 ,            0.0 ,              0.0 ,                   0.0 , 813.0 ,86.35357 ,-3.291015 ,           0.0 ,           0.0 ,       0.0 ,152.4011       ,-18.53113   ,-0.002559041     ,-0.0009277113    ,                 0.0 ,             0.0 ,             0.0 ,                 0.0 ,                 0.0 ,        0.0 ,1.4983348385342588     ,            0.0 ,            0.0 ,            0.0 ,              0.0 ,                   0.0 ,  0.0 ,0.0 , 723.7249291486983   ,1.0                ,0.0 ,-28.36386319214044  ,-65.22229168798165  ,-1.4948690258780222     ,-31.72818083165419  ,          0.0 ,          0.0 ,-28.300413484846118 ,-65.28574139527598  ,-31.72818083165419  ,-125.31432682809623 , 20.447675361488606  , 41.771441903925435 , 35.41641081899421   ,-23.3665486077549     ,-60.224983649927594 ,-1.4948690258780222     ,-26.730871624925836 ,          0.0 ,          0.0 ,-23.30310427811776   ,-60.28843143323326  ,-26.730871624925836 ,-110.32240195861968 , 20.447675361488606  , 36.77413731953989   , 35.41641081899421   ,-1.658327134643431e-06  ,2.2542348454492192e-07  ,-1.0683498826970534e-07 ,      0.0 ,      0.0 ,      0.0 ,2.3917616812840016e-07  ,-1.6720800721939928e-06 ,      0.0 ,-1.4329038461554213e-06 ,1.0420403918073967e-06 ,0.4002935701573823   ,0.028951806671414518    ,-6.208354851755127e-07  ,-3.00936318804756e-07   ,8.260746194787841e-08  ,18.022173685822256     ,0.0 ,135.17288578630163    ,4.413280058384088       ,        0.0 ,        0.0 , 0.0
 0.0 ,0.0 ,           0.0 ,            0.0 ,            0.0 ,            0.0 ,              0.0 ,                   0.0 , 814.0 ,87.59845 ,-3.327246 ,           0.0 ,           0.0 ,       0.0 ,151.7947       ,-18.50672   ,-0.01055665      ,0.005188934      ,                 0.0 ,             0.0 ,             0.0 ,                 0.0 ,                 0.0 ,        0.0 ,2.0105946715051544     ,            0.0 ,            0.0 ,            0.0 ,              0.0 ,                   0.0 ,  0.0 ,0.0 , 726.0774240479254   ,1.0                ,0.0 ,-29.29218447592733  ,-65.77316065377335  ,-1.0017468433645709     ,-32.14651929636951  ,          0.0 ,          0.0 ,-29.26007051451503  ,-65.80527078334978  ,-32.14651929636951  ,-127.21183598815797 , 20.322909137604054  , 42.40395251221298  , 35.20030900443114   ,-24.294892611060178   ,-60.775868014665726 ,-1.0017468433645709     ,-27.149226657261885 ,          0.0 ,          0.0 ,-24.262778596674526  ,-60.80797891848263  ,-27.149226657261885 ,-112.2199966676674  , 20.322909137604054  , 37.40666370494122   , 35.20030900443114   ,-1.5054175988129946e-06 ,2.585767328955113e-07   ,2.782444998991136e-07   ,      0.0 ,      0.0 ,      0.0 ,3.8055261368462545e-07  ,-1.6273931469072206e-06 ,      0.0 ,-1.2468408275991247e-06 ,1.071694930314111e-06  ,0.29051360190985653  ,0.020710044805562516    ,-7.764556253767263e-07  ,-2.9564043439795456e-07 ,6.257280679396306e-07  ,60.275276944416014     ,0.0 ,91.85966939243646     ,3.0823418623443297      ,        0.0 ,        0.0 , 0.0
 0.0 ,0.0 ,           0.0 ,            0.0 ,            0.0 ,            0.0 ,              0.0 ,                   0.0 , 815.0 ,62.5     ,-40.0     ,           0.0 ,           0.0 ,       0.0 ,-213.4321      ,-18.6568    ,6.637281         ,1396.808         ,                 0.0 ,             0.0 ,             0.0 ,                 0.0 ,                 0.0 ,        0.0 ,0.0                    ,            0.0 ,            0.0 ,            0.0 ,              0.0 ,                   0.0 ,  0.0 ,0.0 ,  63.0526890076239   ,-19.13493555082592 ,0.0 ,-150.20647096360102 ,-301.8961131095082  ,-0.9660051654729485     ,-150.84806452398357 ,          0.0 ,          0.0 ,-149.69559048054901 ,-302.40699445125637 ,-150.84806452398357 ,-602.9506491411203  , 87.8937275420447    ,200.98354996185654  ,152.23640201469016   ,-195.62452991762592   ,-347.3141746533202  ,-0.9660051654729485     ,-196.26612436533654 ,          0.0 ,          0.0 ,-195.1136501735405   ,-347.8250543585413  ,-196.26612436533654 ,-739.204823850142   , 87.8937275420447    ,246.4016094143192    ,152.23640201469016   ,-2.1993138581648397e-07 ,-1.3757231431372854e-05 ,-8.025748206091332e-07  ,      0.0 ,      0.0 ,      0.0 ,9.084547298373262e-07   ,-1.488561759416882e-05  ,      0.0 ,-1.397716300294931e-05  ,9.053272662137981e-06  ,0.5732550085034905   ,0.2946648442233249      ,-0.005997995722761869   ,-0.0033391805167947105  ,0.006388475128528773   ,-3.1676430553497203    ,0.0 ,-3.973368943820623    ,-23.19387943808092      ,        0.0 ,        0.0 , 0.0
 0.0 ,0.0 ,           0.0 ,            0.0 ,            0.0 ,            0.0 ,              0.0 ,                   0.0 , 816.0 ,64.45313 ,-40.0     ,           0.0 ,           0.0 ,       0.0 ,-213.47        ,-18.65299   ,10.95471         ,1401.893         ,                 0.0 ,             0.0 ,             0.0 ,                 0.0 ,                 0.0 ,        0.0 ,0.0                    ,            0.0 ,            0.0 ,            0.0 ,              0.0 ,                   0.0 ,  0.0 ,0.0 ,  63.0526890076239   ,-19.13493555082592 ,0.0 ,-150.20647096360102 ,-301.8961131095082  ,-0.9660051654729485     ,-150.84806452398357 ,          0.0 ,          0.0 ,-149.69559048054901 ,-302.40699445125637 ,-150.84806452398357 ,-602.9506491411203  , 87.8937275420447    ,200.98354996185654  ,152.23640201469016   ,-195.62452991762592   ,-347.3141746533202  ,-0.9660051654729485     ,-196.26612436533654 ,          0.0 ,          0.0 ,-195.1136501735405   ,-347.8250543585413  ,-196.26612436533654 ,-739.204823850142   , 87.8937275420447    ,246.4016094143192    ,152.23640201469016   ,-2.1993138581648397e-07 ,-1.3757231431372854e-05 ,-8.025748206091332e-07  ,      0.0 ,      0.0 ,      0.0 ,9.084547298373262e-07   ,-1.488561759416882e-05  ,      0.0 ,-1.397716300294931e-05  ,9.053272662137981e-06  ,0.5732550085034905   ,0.2946648442233249      ,-0.005997995722761869   ,-0.0033391805167947105  ,0.006388475128528773   ,-3.1676430553497203    ,0.0 ,-3.973368943820623    ,-23.19387943808092      ,        0.0 ,        0.0 , 0.0
 0.0 ,0.0 ,           0.0 ,            0.0 ,            0.0 ,            0.0 ,              0.0 ,                   0.0 , 817.0 ,66.40625 ,-40.0     ,           0.0 ,           0.0 ,       0.0 ,-213.5076      ,-18.64923   ,16.74257         ,1409.031         ,                 0.0 ,             0.0 ,             0.0 ,                 0.0 ,                 0.0 ,        0.0 ,0.0                    ,            0.0 ,            0.0 ,            0.0 ,              0.0 ,                   0.0 ,  0.0 ,0.0 ,  63.0526890076239   ,-19.13493555082592 ,0.0 ,-150.20647096360102 ,-301.8961131095082  ,-0.9660051654729485     ,-150.84806452398357 ,          0.0 ,          0.0 ,-149.69559048054901 ,-302.40699445125637 ,-150.84806452398357 ,-602.9506491411203  , 87.8937275420447    ,200.98354996185654  ,152.23640201469016   ,-195.62452991762592   ,-347.3141746533202  ,-0.9660051654729485     ,-196.26612436533654 ,          0.0 ,          0.0 ,-195.1136501735405   ,-347.8250543585413  ,-196.26612436533654 ,-739.204823850142   , 87.8937275420447    ,246.4016094143192    ,152.23640201469016   ,-2.1993138581648397e-07 ,-1.3757231431372854e-05 ,-8.025748206091332e-07  ,      0.0 ,      0.0 ,      0.0 ,9.084547298373262e-07   ,-1.488561759416882e-05  ,      0.0 ,-1.397716300294931e-05  ,9.053272662137981e-06  ,0.5732550085034905   ,0.2946648442233249      ,-0.005997995722761869   ,-0.0033391805167947105  ,0.006388475128528773   ,-3.1676430553497203    ,0.0 ,-3.973368943820623    ,-23.19387943808092      ,        0.0 ,        0.0 , 0.0
 0.0 ,0.0 ,           0.0 ,            0.0 ,            0.0 ,            0.0 ,              0.0 ,                   0.0 , 818.0 ,68.35938 ,-40.0     ,           0.0 ,           0.0 ,       0.0 ,-213.5448      ,-18.64552   ,21.88286         ,1417.057         ,                 0.0 ,             0.0 ,             0.0 ,                 0.0 ,                 0.0 ,        0.0 ,0.0                    ,            0.0 ,            0.0 ,            0.0 ,              0.0 ,                   0.0 ,  0.0 ,0.0 ,  63.0526890076239   ,-19.13493555082592 ,0.0 ,-150.20647096360102 ,-301.8961131095082  ,-0.9660051654729485     ,-150.84806452398357 ,          0.0 ,          0.0 ,-149.69559048054901 ,-302.40699445125637 ,-150.84806452398357 ,-602.9506491411203  , 87.8937275420447    ,200.98354996185654  ,152.23640201469016   ,-195.62452991762592   ,-347.3141746533202  ,-0.9660051654729485     ,-196.26612436533654 ,          0.0 ,          0.0 ,-195.1136501735405   ,-347.8250543585413  ,-196.26612436533654 ,-739.204823850142   , 87.8937275420447    ,246.4016094143192    ,152.23640201469016   ,-2.1993138581648397e-07 ,-1.3757231431372854e-05 ,-8.025748206091332e-07  ,      0.0 ,      0.0 ,      0.0 ,9.084547298373262e-07   ,-1.488561759416882e-05  ,      0.0 ,-1.397716300294931e-05  ,9.053272662137981e-06  ,0.5732550085034905   ,0.2946648442233249      ,-0.005997995722761869   ,-0.0033391805167947105  ,0.006388475128528773   ,-3.1676430553497203    ,0.0 ,-3.973368943820623    ,-23.19387943808092      ,        0.0 ,        0.0 , 0.0
 0.0 ,0.0 ,           0.0 ,            0.0 ,            0.0 ,            0.0 ,              0.0 ,                   0.0 , 819.0 ,70.3125  ,-40.0     ,           0.0 ,           0.0 ,       0.0 ,-213.5814      ,-18.64186   ,23.75605         ,1424.026         ,                 0.0 ,             0.0 ,             0.0 ,                 0.0 ,                 0.0 ,        0.0 ,0.0                    ,            0.0 ,            0.0 ,            0.0 ,              0.0 ,                   0.0 ,  0.0 ,0.0 ,  63.0526890076239   ,-19.13493555082592 ,0.0 ,-150.20647096360102 ,-301.8961131095082  ,-0.9660051654729485     ,-150.84806452398357 ,          0.0 ,          0.0 ,-149.69559048054901 ,-302.40699445125637 ,-150.84806452398357 ,-602.9506491411203  , 87.8937275420447    ,200.98354996185654  ,152.23640201469016   ,-195.62452991762592   ,-347.3141746533202  ,-0.9660051654729485     ,-196.26612436533654 ,          0.0 ,          0.0 ,-195.1136501735405   ,-347.8250543585413  ,-196.26612436533654 ,-739.204823850142   , 87.8937275420447    ,246.4016094143192    ,152.23640201469016   ,-2.1993138581648397e-07 ,-1.3757231431372854e-05 ,-8.025748206091332e-07  ,      0.0 ,      0.0 ,      0.0 ,9.084547298373262e-07   ,-1.488561759416882e-05  ,      0.0 ,-1.397716300294931e-05  ,9.053272662137981e-06  ,0.5732550085034905   ,0.2946648442233249      ,-0.005997995722761869   ,-0.0033391805167947105  ,0.006388475128528773   ,-3.1676430553497203    ,0.0 ,-3.973368943820623    ,-23.19387943808092      ,        0.0 ,        0.0 , 0.0
 0.0 ,0.0 ,           0.0 ,            0.0 ,            0.0 ,            0.0 ,              0.0 ,                   0.0 , 820.0 ,72.26563 ,-40.0     ,           0.0 ,           0.0 ,       0.0 ,-213.6173      ,-18.63827   ,20.81858         ,1425.598         ,                 0.0 ,             0.0 ,             0.0 ,                 0.0 ,                 0.0 ,        0.0 ,0.0                    ,            0.0 ,            0.0 ,            0.0 ,              0.0 ,                   0.0 ,  0.0 ,0.0 ,  63.0526890076239   ,-19.13493555082592 ,0.0 ,-150.20647096360102 ,-301.8961131095082  ,-0.9660051654729485     ,-150.84806452398357 ,          0.0 ,          0.0 ,-149.69559048054901 ,-302.40699445125637 ,-150.84806452398357 ,-602.9506491411203  , 87.8937275420447    ,200.98354996185654  ,152.23640201469016   ,-195.62452991762592   ,-347.3141746533202  ,-0.9660051654729485     ,-196.26612436533654 ,          0.0 ,          0.0 ,-195.1136501735405   ,-347.8250543585413  ,-196.26612436533654 ,-739.204823850142   , 87.8937275420447    ,246.4016094143192    ,152.23640201469016   ,-2.1993138581648397e-07 ,-1.3757231431372854e-05 ,-8.025748206091332e-07  ,      0.0 ,      0.0 ,      0.0 ,9.084547298373262e-07   ,-1.488561759416882e-05  ,      0.0 ,-1.397716300294931e-05  ,9.053272662137981e-06  ,0.5732550085034905   ,0.2946648442233249      ,-0.005997995722761869   ,-0.0033391805167947105  ,0.006388475128528773   ,-3.1676430553497203    ,0.0 ,-3.973368943820623    ,-23.19387943808092      ,        0.0 ,        0.0 , 0.0
 0.0 ,0.0 ,           0.0 ,            0.0 ,            0.0 ,            0.0 ,              0.0 ,                   0.0 , 821.0 ,74.21875 ,-40.0     ,           0.0 ,           0.0 ,       0.0 ,-213.6525      ,-18.63475   ,14.19897         ,1419.773         ,                 0.0 ,             0.0 ,             0.0 ,                 0.0 ,                 0.0 ,        0.0 ,0.0                    ,            0.0 ,            0.0 ,            0.0 ,              0.0 ,                   0.0 ,  0.0 ,0.0 ,  63.0526890076239   ,-19.13493555082592 ,0.0 ,-150.20647096360102 ,-301.8961131095082  ,-0.9660051654729485     ,-150.84806452398357 ,          0.0 ,          0.0 ,-149.69559048054901 ,-302.40699445125637 ,-150.84806452398357 ,-602.9506491411203  , 87.8937275420447    ,200.98354996185654  ,152.23640201469016   ,-195.62452991762592   ,-347.3141746533202  ,-0.9660051654729485     ,-196.26612436533654 ,          0.0 ,          0.0 ,-195.1136501735405   ,-347.8250543585413  ,-196.26612436533654 ,-739.204823850142   , 87.8937275420447    ,246.4016094143192    ,152.23640201469016   ,-2.1993138581648397e-07 ,-1.3757231431372854e-05 ,-8.025748206091332e-07  ,      0.0 ,      0.0 ,      0.0 ,9.084547298373262e-07   ,-1.488561759416882e-05  ,      0.0 ,-1.397716300294931e-05  ,9.053272662137981e-06  ,0.5732550085034905   ,0.2946648442233249      ,-0.005997995722761869   ,-0.0033391805167947105  ,0.006388475128528773   ,-3.1676430553497203    ,0.0 ,-3.973368943820623    ,-23.19387943808092      ,        0.0 ,        0.0 , 0.0
 0.0 ,0.0 ,           0.0 ,            0.0 ,            0.0 ,            0.0 ,              0.0 ,                   0.0 , 822.0 ,76.17188 ,-40.0     ,           0.0 ,           0.0 ,       0.0 ,-213.6866      ,-18.63134   ,9.671151         ,1413.617         ,                 0.0 ,             0.0 ,             0.0 ,                 0.0 ,                 0.0 ,        0.0 ,0.0                    ,            0.0 ,            0.0 ,            0.0 ,              0.0 ,                   0.0 ,  0.0 ,0.0 ,  63.0526890076239   ,-19.13493555082592 ,0.0 ,-150.20647096360102 ,-301.8961131095082  ,-0.9660051654729485     ,-150.84806452398357 ,          0.0 ,          0.0 ,-149.69559048054901 ,-302.40699445125637 ,-150.84806452398357 ,-602.9506491411203  , 87.8937275420447    ,200.98354996185654  ,152.23640201469016   ,-195.62452991762592   ,-347.3141746533202  ,-0.9660051654729485     ,-196.26612436533654 ,          0.0 ,          0.0 ,-195.1136501735405   ,-347.8250543585413  ,-196.26612436533654 ,-739.204823850142   , 87.8937275420447    ,246.4016094143192    ,152.23640201469016   ,-2.1993138581648397e-07 ,-1.3757231431372854e-05 ,-8.025748206091332e-07  ,      0.0 ,      0.0 ,      0.0 ,9.084547298373262e-07   ,-1.488561759416882e-05  ,      0.0 ,-1.397716300294931e-05  ,9.053272662137981e-06  ,0.5732550085034905   ,0.2946648442233249      ,-0.005997995722761869   ,-0.0033391805167947105  ,0.006388475128528773   ,-3.1676430553497203    ,0.0 ,-3.973368943820623    ,-23.19387943808092      ,        0.0 ,        0.0 , 0.0
 0.0 ,0.0 ,           0.0 ,            0.0 ,            0.0 ,            0.0 ,              0.0 ,                   0.0 , 823.0 ,78.125   ,-40.0     ,           0.0 ,           0.0 ,       0.0 ,-213.7194      ,-18.62806   ,4.825879         ,1413.08          ,                 0.0 ,             0.0 ,             0.0 ,                 0.0 ,                 0.0 ,        0.0 ,0.0                    ,            0.0 ,            0.0 ,            0.0 ,              0.0 ,                   0.0 ,  0.0 ,0.0 ,  63.0526890076239   ,-19.13493555082592 ,0.0 ,-150.20647096360102 ,-301.8961131095082  ,-0.9660051654729485     ,-150.84806452398357 ,          0.0 ,          0.0 ,-149.69559048054901 ,-302.40699445125637 ,-150.84806452398357 ,-602.9506491411203  , 87.8937275420447    ,200.98354996185654  ,152.23640201469016   ,-195.62452991762592   ,-347.3141746533202  ,-0.9660051654729485     ,-196.26612436533654 ,          0.0 ,          0.0 ,-195.1136501735405   ,-347.8250543585413  ,-196.26612436533654 ,-739.204823850142   , 87.8937275420447    ,246.4016094143192    ,152.23640201469016   ,-2.1993138581648397e-07 ,-1.3757231431372854e-05 ,-8.025748206091332e-07  ,      0.0 ,      0.0 ,      0.0 ,9.084547298373262e-07   ,-1.488561759416882e-05  ,      0.0 ,-1.397716300294931e-05  ,9.053272662137981e-06  ,0.5732550085034905   ,0.2946648442233249      ,-0.005997995722761869   ,-0.0033391805167947105  ,0.006388475128528773   ,-3.1676430553497203    ,0.0 ,-3.973368943820623    ,-23.19387943808092      ,        0.0 ,        0.0 , 0.0
 0.0 ,0.0 ,           0.0 ,            0.0 ,            0.0 ,            0.0 ,              0.0 ,                   0.0 , 824.0 ,80.07813 ,-40.0     ,           0.0 ,           0.0 ,       0.0 ,-213.7506      ,-18.62494   ,-1.888977        ,1414.531         ,                 0.0 ,             0.0 ,             0.0 ,                 0.0 ,                 0.0 ,        0.0 ,0.0                    ,            0.0 ,            0.0 ,            0.0 ,              0.0 ,                   0.0 ,  0.0 ,0.0 ,  63.0526890076239   ,-19.13493555082592 ,0.0 ,-150.20647096360102 ,-301.8961131095082  ,-0.9660051654729485     ,-150.84806452398357 ,          0.0 ,          0.0 ,-149.69559048054901 ,-302.40699445125637 ,-150.84806452398357 ,-602.9506491411203  , 87.8937275420447    ,200.98354996185654  ,152.23640201469016   ,-195.62452991762592   ,-347.3141746533202  ,-0.9660051654729485     ,-196.26612436533654 ,          0.0 ,          0.0 ,-195.1136501735405   ,-347.8250543585413  ,-196.26612436533654 ,-739.204823850142   , 87.8937275420447    ,246.4016094143192    ,152.23640201469016   ,-2.1993138581648397e-07 ,-1.3757231431372854e-05 ,-8.025748206091332e-07  ,      0.0 ,      0.0 ,      0.0 ,9.084547298373262e-07   ,-1.488561759416882e-05  ,      0.0 ,-1.397716300294931e-05  ,9.053272662137981e-06  ,0.5732550085034905   ,0.2946648442233249      ,-0.005997995722761869   ,-0.0033391805167947105  ,0.006388475128528773   ,-3.1676430553497203    ,0.0 ,-3.973368943820623    ,-23.19387943808092      ,        0.0 ,        0.0 , 0.0
 0.0 ,0.0 ,           0.0 ,            0.0 ,            0.0 ,            0.0 ,              0.0 ,                   0.0 , 825.0 ,82.03125 ,-40.0     ,           0.0 ,           0.0 ,       0.0 ,-213.7799      ,-18.62201   ,-7.516752        ,1411.873         ,                 0.0 ,             0.0 ,             0.0 ,                 0.0 ,                 0.0 ,        0.0 ,0.0                    ,            0.0 ,            0.0 ,            0.0 ,              0.0 ,                   0.0 ,  0.0 ,0.0 ,  63.0526890076239   ,-19.13493555082592 ,0.0 ,-150.20647096360102 ,-301.8961131095082  ,-0.9660051654729485     ,-150.84806452398357 ,          0.0 ,          0.0 ,-149.69559048054901 ,-302.40699445125637 ,-150.84806452398357 ,-602.9506491411203  , 87.8937275420447    ,200.98354996185654  ,152.23640201469016   ,-195.62452991762592   ,-347.3141746533202  ,-0.9660051654729485     ,-196.26612436533654 ,          0.0 ,          0.0 ,-195.1136501735405   ,-347.8250543585413  ,-196.26612436533654 ,-739.204823850142   , 87.8937275420447    ,246.4016094143192    ,152.23640201469016   ,-2.1993138581648397e-07 ,-1.3757231431372854e-05 ,-8.025748206091332e-07  ,      0.0 ,      0.0 ,      0.0 ,9.084547298373262e-07   ,-1.488561759416882e-05  ,      0.0 ,-1.397716300294931e-05  ,9.053272662137981e-06  ,0.5732550085034905   ,0.2946648442233249      ,-0.005997995722761869   ,-0.0033391805167947105  ,0.006388475128528773   ,-3.1676430553497203    ,0.0 ,-3.973368943820623    ,-23.19387943808092      ,        0.0 ,        0.0 , 0.0
 0.0 ,0.0 ,           0.0 ,            0.0 ,            0.0 ,            0.0 ,              0.0 ,                   0.0 , 826.0 ,83.98438 ,-40.0     ,           0.0 ,           0.0 ,       0.0 ,-213.8067      ,-18.61933   ,-10.74419        ,1410.789         ,                 0.0 ,             0.0 ,             0.0 ,                 0.0 ,                 0.0 ,        0.0 ,0.0                    ,            0.0 ,            0.0 ,            0.0 ,              0.0 ,                   0.0 ,  0.0 ,0.0 ,  63.0526890076239   ,-19.13493555082592 ,0.0 ,-150.20647096360102 ,-301.8961131095082  ,-0.9660051654729485     ,-150.84806452398357 ,          0.0 ,          0.0 ,-149.69559048054901 ,-302.40699445125637 ,-150.84806452398357 ,-602.9506491411203  , 87.8937275420447    ,200.98354996185654  ,152.23640201469016   ,-195.62452991762592   ,-347.3141746533202  ,-0.9660051654729485     ,-196.26612436533654 ,          0.0 ,          0.0 ,-195.1136501735405   ,-347.8250543585413  ,-196.26612436533654 ,-739.204823850142   , 87.8937275420447    ,246.4016094143192    ,152.23640201469016   ,-2.1993138581648397e-07 ,-1.3757231431372854e-05 ,-8.025748206091332e-07  ,      0.0 ,      0.0 ,      0.0 ,9.084547298373262e-07   ,-1.488561759416882e-05  ,      0.0 ,-1.397716300294931e-05  ,9.053272662137981e-06  ,0.5732550085034905   ,0.2946648442233249      ,-0.005997995722761869   ,-0.0033391805167947105  ,0.006388475128528773   ,-3.1676430553497203    ,0.0 ,-3.973368943820623    ,-23.19387943808092      ,        0.0 ,        0.0 , 0.0
 0.0 ,0.0 ,           0.0 ,            0.0 ,            0.0 ,            0.0 ,              0.0 ,                   0.0 , 827.0 ,85.9375  ,-40.0     ,           0.0 ,           0.0 ,       0.0 ,-213.8302      ,-18.61698   ,-16.84344        ,1418.306         ,                 0.0 ,             0.0 ,             0.0 ,                 0.0 ,                 0.0 ,        0.0 ,0.0                    ,            0.0 ,            0.0 ,            0.0 ,              0.0 ,                   0.0 ,  0.0 ,0.0 ,  63.0526890076239   ,-19.13493555082592 ,0.0 ,-150.20647096360102 ,-301.8961131095082  ,-0.9660051654729485     ,-150.84806452398357 ,          0.0 ,          0.0 ,-149.69559048054901 ,-302.40699445125637 ,-150.84806452398357 ,-602.9506491411203  , 87.8937275420447    ,200.98354996185654  ,152.23640201469016   ,-195.62452991762592   ,-347.3141746533202  ,-0.9660051654729485     ,-196.26612436533654 ,          0.0 ,          0.0 ,-195.1136501735405   ,-347.8250543585413  ,-196.26612436533654 ,-739.204823850142   , 87.8937275420447    ,246.4016094143192    ,152.23640201469016   ,-2.1993138581648397e-07 ,-1.3757231431372854e-05 ,-8.025748206091332e-07  ,      0.0 ,      0.0 ,      0.0 ,9.084547298373262e-07   ,-1.488561759416882e-05  ,      0.0 ,-1.397716300294931e-05  ,9.053272662137981e-06  ,0.5732550085034905   ,0.2946648442233249      ,-0.005997995722761869   ,-0.0033391805167947105  ,0.006388475128528773   ,-3.1676430553497203    ,0.0 ,-3.973368943820623    ,-23.19387943808092      ,        0.0 ,        0.0 , 0.0
 0.0 ,0.0 ,           0.0 ,            0.0 ,            0.0 ,            0.0 ,              0.0 ,                   0.0 , 828.0 ,87.89063 ,-40.0     ,           0.0 ,           0.0 ,       0.0 ,-213.8493      ,-18.61506   ,-23.98235        ,1427.54          ,                 0.0 ,             0.0 ,             0.0 ,                 0.0 ,                 0.0 ,        0.0 ,0.0                    ,            0.0 ,            0.0 ,            0.0 ,              0.0 ,                   0.0 ,  0.0 ,0.0 ,  63.0526890076239   ,-19.13493555082592 ,0.0 ,-150.20647096360102 ,-301.8961131095082  ,-0.9660051654729485     ,-150.84806452398357 ,          0.0 ,          0.0 ,-149.69559048054901 ,-302.40699445125637 ,-150.84806452398357 ,-602.9506491411203  , 87.8937275420447    ,200.98354996185654  ,152.23640201469016   ,-195.62452991762592   ,-347.3141746533202  ,-0.9660051654729485     ,-196.26612436533654 ,          0.0 ,          0.0 ,-195.1136501735405   ,-347.8250543585413  ,-196.26612436533654 ,-739.204823850142   , 87.8937275420447    ,246.4016094143192    ,152.23640201469016   ,-2.1993138581648397e-07 ,-1.3757231431372854e-05 ,-8.025748206091332e-07  ,      0.0 ,      0.0 ,      0.0 ,9.084547298373262e-07   ,-1.488561759416882e-05  ,      0.0 ,-1.397716300294931e-05  ,9.053272662137981e-06  ,0.5732550085034905   ,0.2946648442233249      ,-0.005997995722761869   ,-0.0033391805167947105  ,0.006388475128528773   ,-3.1676430553497203    ,0.0 ,-3.973368943820623    ,-23.19387943808092      ,        0.0 ,        0.0 , 0.0
 0.0 ,0.0 ,           0.0 ,            0.0 ,            0.0 ,            0.0 ,              0.0 ,                   0.0 , 829.0 ,89.84375 ,-40.0     ,           0.0 ,           0.0 ,       0.0 ,-213.8631      ,-18.61369   ,-25.68509        ,1428.693         ,                 0.0 ,             0.0 ,             0.0 ,                 0.0 ,                 0.0 ,        0.0 ,0.0                    ,            0.0 ,            0.0 ,            0.0 ,              0.0 ,                   0.0 ,  0.0 ,0.0 ,  63.0526890076239   ,-19.13493555082592 ,0.0 ,-150.20647096360102 ,-301.8961131095082  ,-0.9660051654729485     ,-150.84806452398357 ,          0.0 ,          0.0 ,-149.69559048054901 ,-302.40699445125637 ,-150.84806452398357 ,-602.9506491411203  , 87.8937275420447    ,200.98354996185654  ,152.23640201469016   ,-195.62452991762592   ,-347.3141746533202  ,-0.9660051654729485     ,-196.26612436533654 ,          0.0 ,          0.0 ,-195.1136501735405   ,-347.8250543585413  ,-196.26612436533654 ,-739.204823850142   , 87.8937275420447    ,246.4016094143192    ,152.23640201469016   ,-2.1993138581648397e-07 ,-1.3757231431372854e-05 ,-8.025748206091332e-07  ,      0.0 ,      0.0 ,      0.0 ,9.084547298373262e-07   ,-1.488561759416882e-05  ,      0.0 ,-1.397716300294931e-05  ,9.053272662137981e-06  ,0.5732550085034905   ,0.2946648442233249      ,-0.005997995722761869   ,-0.0033391805167947105  ,0.006388475128528773   ,-3.1676430553497203    ,0.0 ,-3.973368943820623    ,-23.19387943808092      ,        0.0 ,        0.0 , 0.0
 0.0 ,0.0 ,           0.0 ,            0.0 ,            0.0 ,            0.0 ,              0.0 ,                   0.0 , 830.0 ,91.79688 ,-40.0     ,           0.0 ,           0.0 ,       0.0 ,-213.8701      ,-18.61299   ,-21.27936        ,1422.383         ,                 0.0 ,             0.0 ,             0.0 ,                 0.0 ,                 0.0 ,        0.0 ,0.0                    ,            0.0 ,            0.0 ,            0.0 ,              0.0 ,                   0.0 ,  0.0 ,0.0 ,  63.0526890076239   ,-19.13493555082592 ,0.0 ,-150.20647096360102 ,-301.8961131095082  ,-0.9660051654729485     ,-150.84806452398357 ,          0.0 ,          0.0 ,-149.69559048054901 ,-302.40699445125637 ,-150.84806452398357 ,-602.9506491411203  , 87.8937275420447    ,200.98354996185654  ,152.23640201469016   ,-195.62452991762592   ,-347.3141746533202  ,-0.9660051654729485     ,-196.26612436533654 ,          0.0 ,          0.0 ,-195.1136501735405   ,-347.8250543585413  ,-196.26612436533654 ,-739.204823850142   , 87.8937275420447    ,246.4016094143192    ,152.23640201469016   ,-2.1993138581648397e-07 ,-1.3757231431372854e-05 ,-8.025748206091332e-07  ,      0.0 ,      0.0 ,      0.0 ,9.084547298373262e-07   ,-1.488561759416882e-05  ,      0.0 ,-1.397716300294931e-05  ,9.053272662137981e-06  ,0.5732550085034905   ,0.2946648442233249      ,-0.005997995722761869   ,-0.0033391805167947105  ,0.006388475128528773   ,-3.1676430553497203    ,0.0 ,-3.973368943820623    ,-23.19387943808092      ,        0.0 ,        0.0 , 0.0
 0.0 ,0.0 ,           0.0 ,            0.0 ,            0.0 ,            0.0 ,              0.0 ,                   0.0 , 831.0 ,93.75    ,-40.0     ,           0.0 ,           0.0 ,       0.0 ,-213.8688      ,-18.61312   ,-14.54597        ,1414.396         ,                 0.0 ,             0.0 ,             0.0 ,                 0.0 ,                 0.0 ,        0.0 ,0.0                    ,            0.0 ,            0.0 ,            0.0 ,              0.0 ,                   0.0 ,  0.0 ,0.0 ,  63.0526890076239   ,-19.13493555082592 ,0.0 ,-150.20647096360102 ,-301.8961131095082  ,-0.9660051654729485     ,-150.84806452398357 ,          0.0 ,          0.0 ,-149.69559048054901 ,-302.40699445125637 ,-150.84806452398357 ,-602.9506491411203  , 87.8937275420447    ,200.98354996185654  ,152.23640201469016   ,-195.62452991762592   ,-347.3141746533202  ,-0.9660051654729485     ,-196.26612436533654 ,          0.0 ,          0.0 ,-195.1136501735405   ,-347.8250543585413  ,-196.26612436533654 ,-739.204823850142   , 87.8937275420447    ,246.4016094143192    ,152.23640201469016   ,-2.1993138581648397e-07 ,-1.3757231431372854e-05 ,-8.025748206091332e-07  ,      0.0 ,      0.0 ,      0.0 ,9.084547298373262e-07   ,-1.488561759416882e-05  ,      0.0 ,-1.397716300294931e-05  ,9.053272662137981e-06  ,0.5732550085034905   ,0.2946648442233249      ,-0.005997995722761869   ,-0.0033391805167947105  ,0.006388475128528773   ,-3.1676430553497203    ,0.0 ,-3.973368943820623    ,-23.19387943808092      ,        0.0 ,        0.0 , 0.0
 0.0 ,0.0 ,           0.0 ,            0.0 ,            0.0 ,            0.0 ,              0.0 ,                   0.0 , 832.0 ,95.70313 ,-40.0     ,           0.0 ,           0.0 ,       0.0 ,-213.8572      ,-18.61428   ,-8.026533        ,1407.75          ,                 0.0 ,             0.0 ,             0.0 ,                 0.0 ,                 0.0 ,        0.0 ,0.0                    ,            0.0 ,            0.0 ,            0.0 ,              0.0 ,                   0.0 ,  0.0 ,0.0 ,  63.0526890076239   ,-19.13493555082592 ,0.0 ,-150.20647096360102 ,-301.8961131095082  ,-0.9660051654729485     ,-150.84806452398357 ,          0.0 ,          0.0 ,-149.69559048054901 ,-302.40699445125637 ,-150.84806452398357 ,-602.9506491411203  , 87.8937275420447    ,200.98354996185654  ,152.23640201469016   ,-195.62452991762592   ,-347.3141746533202  ,-0.9660051654729485     ,-196.26612436533654 ,          0.0 ,          0.0 ,-195.1136501735405   ,-347.8250543585413  ,-196.26612436533654 ,-739.204823850142   , 87.8937275420447    ,246.4016094143192    ,152.23640201469016   ,-2.1993138581648397e-07 ,-1.3757231431372854e-05 ,-8.025748206091332e-07  ,      0.0 ,      0.0 ,      0.0 ,9.084547298373262e-07   ,-1.488561759416882e-05  ,      0.0 ,-1.397716300294931e-05  ,9.053272662137981e-06  ,0.5732550085034905   ,0.2946648442233249      ,-0.005997995722761869   ,-0.0033391805167947105  ,0.006388475128528773   ,-3.1676430553497203    ,0.0 ,-3.973368943820623    ,-23.19387943808092      ,        0.0 ,        0.0 , 0.0
 0.0 ,0.0 ,           0.0 ,            0.0 ,            0.0 ,            0.0 ,              0.0 ,                   0.0 , 833.0 ,97.65625 ,-40.0     ,           0.0 ,           0.0 ,       0.0 ,-213.833       ,-18.6167    ,-2.566394        ,1402.502         ,                 0.0 ,             0.0 ,             0.0 ,                 0.0 ,                 0.0 ,        0.0 ,0.0                    ,            0.0 ,            0.0 ,            0.0 ,              0.0 ,                   0.0 ,  0.0 ,0.0 ,  63.0526890076239   ,-19.13493555082592 ,0.0 ,-150.20647096360102 ,-301.8961131095082  ,-0.9660051654729485     ,-150.84806452398357 ,          0.0 ,          0.0 ,-149.69559048054901 ,-302.40699445125637 ,-150.84806452398357 ,-602.9506491411203  , 87.8937275420447    ,200.98354996185654  ,152.23640201469016   ,-195.62452991762592   ,-347.3141746533202  ,-0.9660051654729485     ,-196.26612436533654 ,          0.0 ,          0.0 ,-195.1136501735405   ,-347.8250543585413  ,-196.26612436533654 ,-739.204823850142   , 87.8937275420447    ,246.4016094143192    ,152.23640201469016   ,-2.1993138581648397e-07 ,-1.3757231431372854e-05 ,-8.025748206091332e-07  ,      0.0 ,      0.0 ,      0.0 ,9.084547298373262e-07   ,-1.488561759416882e-05  ,      0.0 ,-1.397716300294931e-05  ,9.053272662137981e-06  ,0.5732550085034905   ,0.2946648442233249      ,-0.005997995722761869   ,-0.0033391805167947105  ,0.006388475128528773   ,-3.1676430553497203    ,0.0 ,-3.973368943820623    ,-23.19387943808092      ,        0.0 ,        0.0 , 0.0
 0.0 ,0.0 ,           0.0 ,            0.0 ,            0.0 ,            0.0 ,              0.0 ,                   0.0 , 834.0 ,99.60938 ,-40.0     ,           0.0 ,           0.0 ,       0.0 ,-213.7925      ,-18.62075   ,0.8875221        ,1399.777         ,                 0.0 ,             0.0 ,             0.0 ,                 0.0 ,                 0.0 ,        0.0 ,0.0                    ,            0.0 ,            0.0 ,            0.0 ,              0.0 ,                   0.0 ,  0.0 ,0.0 ,  63.0526890076239   ,-19.13493555082592 ,0.0 ,-150.20647096360102 ,-301.8961131095082  ,-0.9660051654729485     ,-150.84806452398357 ,          0.0 ,          0.0 ,-149.69559048054901 ,-302.40699445125637 ,-150.84806452398357 ,-602.9506491411203  , 87.8937275420447    ,200.98354996185654  ,152.23640201469016   ,-195.62452991762592   ,-347.3141746533202  ,-0.9660051654729485     ,-196.26612436533654 ,          0.0 ,          0.0 ,-195.1136501735405   ,-347.8250543585413  ,-196.26612436533654 ,-739.204823850142   , 87.8937275420447    ,246.4016094143192    ,152.23640201469016   ,-2.1993138581648397e-07 ,-1.3757231431372854e-05 ,-8.025748206091332e-07  ,      0.0 ,      0.0 ,      0.0 ,9.084547298373262e-07   ,-1.488561759416882e-05  ,      0.0 ,-1.397716300294931e-05  ,9.053272662137981e-06  ,0.5732550085034905   ,0.2946648442233249      ,-0.005997995722761869   ,-0.0033391805167947105  ,0.006388475128528773   ,-3.1676430553497203    ,0.0 ,-3.973368943820623    ,-23.19387943808092      ,        0.0 ,        0.0 , 0.0
 0.0 ,0.0 ,           0.0 ,            0.0 ,            0.0 ,            0.0 ,              0.0 ,                   0.0 , 835.0 ,101.5625 ,-40.0     ,           0.0 ,           0.0 ,       0.0 ,-213.7318      ,-18.62682   ,2.577406         ,1399.402         ,                 0.0 ,             0.0 ,             0.0 ,                 0.0 ,                 0.0 ,        0.0 ,0.0                    ,            0.0 ,            0.0 ,            0.0 ,              0.0 ,                   0.0 ,  0.0 ,0.0 ,  63.0526890076239   ,-19.13493555082592 ,0.0 ,-150.20647096360102 ,-301.8961131095082  ,-0.9660051654729485     ,-150.84806452398357 ,          0.0 ,          0.0 ,-149.69559048054901 ,-302.40699445125637 ,-150.84806452398357 ,-602.9506491411203  , 87.8937275420447    ,200.98354996185654  ,152.23640201469016   ,-195.62452991762592   ,-347.3141746533202  ,-0.9660051654729485     ,-196.26612436533654 ,          0.0 ,          0.0 ,-195.1136501735405   ,-347.8250543585413  ,-196.26612436533654 ,-739.204823850142   , 87.8937275420447    ,246.4016094143192    ,152.23640201469016   ,-2.1993138581648397e-07 ,-1.3757231431372854e-05 ,-8.025748206091332e-07  ,      0.0 ,      0.0 ,      0.0 ,9.084547298373262e-07   ,-1.488561759416882e-05  ,      0.0 ,-1.397716300294931e-05  ,9.053272662137981e-06  ,0.5732550085034905   ,0.2946648442233249      ,-0.005997995722761869   ,-0.0033391805167947105  ,0.006388475128528773   ,-3.1676430553497203    ,0.0 ,-3.973368943820623    ,-23.19387943808092      ,        0.0 ,        0.0 , 0.0
 0.0 ,0.0 ,           0.0 ,            0.0 ,            0.0 ,            0.0 ,              0.0 ,                   0.0 , 836.0 ,103.5156 ,-40.0     ,           0.0 ,           0.0 ,       0.0 ,-213.6466      ,-18.63534   ,3.116731         ,1399.96          ,                 0.0 ,             0.0 ,             0.0 ,                 0.0 ,                 0.0 ,        0.0 ,0.0                    ,            0.0 ,            0.0 ,            0.0 ,              0.0 ,                   0.0 ,  0.0 ,0.0 ,  63.0526890076239   ,-19.13493555082592 ,0.0 ,-150.20647096360102 ,-301.8961131095082  ,-0.9660051654729485     ,-150.84806452398357 ,          0.0 ,          0.0 ,-149.69559048054901 ,-302.40699445125637 ,-150.84806452398357 ,-602.9506491411203  , 87.8937275420447    ,200.98354996185654  ,152.23640201469016   ,-195.62452991762592   ,-347.3141746533202  ,-0.9660051654729485     ,-196.26612436533654 ,          0.0 ,          0.0 ,-195.1136501735405   ,-347.8250543585413  ,-196.26612436533654 ,-739.204823850142   , 87.8937275420447    ,246.4016094143192    ,152.23640201469016   ,-2.1993138581648397e-07 ,-1.3757231431372854e-05 ,-8.025748206091332e-07  ,      0.0 ,      0.0 ,      0.0 ,9.084547298373262e-07   ,-1.488561759416882e-05  ,      0.0 ,-1.397716300294931e-05  ,9.053272662137981e-06  ,0.5732550085034905   ,0.2946648442233249      ,-0.005997995722761869   ,-0.0033391805167947105  ,0.006388475128528773   ,-3.1676430553497203    ,0.0 ,-3.973368943820623    ,-23.19387943808092      ,        0.0 ,        0.0 , 0.0
 0.0 ,0.0 ,           0.0 ,            0.0 ,            0.0 ,            0.0 ,              0.0 ,                   0.0 , 837.0 ,105.4688 ,-40.0     ,           0.0 ,           0.0 ,       0.0 ,-213.5321      ,-18.64679   ,3.345551         ,1400.192         ,                 0.0 ,             0.0 ,             0.0 ,                 0.0 ,                 0.0 ,        0.0 ,0.0                    ,            0.0 ,            0.0 ,            0.0 ,              0.0 ,                   0.0 ,  0.0 ,0.0 ,  63.0526890076239   ,-19.13493555082592 ,0.0 ,-150.20647096360102 ,-301.8961131095082  ,-0.9660051654729485     ,-150.84806452398357 ,          0.0 ,          0.0 ,-149.69559048054901 ,-302.40699445125637 ,-150.84806452398357 ,-602.9506491411203  , 87.8937275420447    ,200.98354996185654  ,152.23640201469016   ,-195.62452991762592   ,-347.3141746533202  ,-0.9660051654729485     ,-196.26612436533654 ,          0.0 ,          0.0 ,-195.1136501735405   ,-347.8250543585413  ,-196.26612436533654 ,-739.204823850142   , 87.8937275420447    ,246.4016094143192    ,152.23640201469016   ,-2.1993138581648397e-07 ,-1.3757231431372854e-05 ,-8.025748206091332e-07  ,      0.0 ,      0.0 ,      0.0 ,9.084547298373262e-07   ,-1.488561759416882e-05  ,      0.0 ,-1.397716300294931e-05  ,9.053272662137981e-06  ,0.5732550085034905   ,0.2946648442233249      ,-0.005997995722761869   ,-0.0033391805167947105  ,0.006388475128528773   ,-3.1676430553497203    ,0.0 ,-3.973368943820623    ,-23.19387943808092      ,        0.0 ,        0.0 , 0.0
 0.0 ,0.0 ,           0.0 ,            0.0 ,            0.0 ,            0.0 ,              0.0 ,                   0.0 , 838.0 ,107.4219 ,-40.0     ,           0.0 ,           0.0 ,       0.0 ,-213.3829      ,-18.66171   ,3.349691         ,1400.319         ,                 0.0 ,             0.0 ,             0.0 ,                 0.0 ,                 0.0 ,        0.0 ,0.0                    ,            0.0 ,            0.0 ,            0.0 ,              0.0 ,                   0.0 ,  0.0 ,0.0 ,  63.0526890076239   ,-19.13493555082592 ,0.0 ,-150.20647096360102 ,-301.8961131095082  ,-0.9660051654729485     ,-150.84806452398357 ,          0.0 ,          0.0 ,-149.69559048054901 ,-302.40699445125637 ,-150.84806452398357 ,-602.9506491411203  , 87.8937275420447    ,200.98354996185654  ,152.23640201469016   ,-195.62452991762592   ,-347.3141746533202  ,-0.9660051654729485     ,-196.26612436533654 ,          0.0 ,          0.0 ,-195.1136501735405   ,-347.8250543585413  ,-196.26612436533654 ,-739.204823850142   , 87.8937275420447    ,246.4016094143192    ,152.23640201469016   ,-2.1993138581648397e-07 ,-1.3757231431372854e-05 ,-8.025748206091332e-07  ,      0.0 ,      0.0 ,      0.0 ,9.084547298373262e-07   ,-1.488561759416882e-05  ,      0.0 ,-1.397716300294931e-05  ,9.053272662137981e-06  ,0.5732550085034905   ,0.2946648442233249      ,-0.005997995722761869   ,-0.0033391805167947105  ,0.006388475128528773   ,-3.1676430553497203    ,0.0 ,-3.973368943820623    ,-23.19387943808092      ,        0.0 ,        0.0 , 0.0
 0.0 ,0.0 ,           0.0 ,            0.0 ,            0.0 ,            0.0 ,              0.0 ,                   0.0 , 839.0 ,109.375  ,-40.0     ,           0.0 ,           0.0 ,       0.0 ,-213.1935      ,-18.68065   ,3.026863         ,1400.582         ,                 0.0 ,             0.0 ,             0.0 ,                 0.0 ,                 0.0 ,        0.0 ,0.0                    ,            0.0 ,            0.0 ,            0.0 ,              0.0 ,                   0.0 ,  0.0 ,0.0 ,  63.0526890076239   ,-19.13493555082592 ,0.0 ,-150.20647096360102 ,-301.8961131095082  ,-0.9660051654729485     ,-150.84806452398357 ,          0.0 ,          0.0 ,-149.69559048054901 ,-302.40699445125637 ,-150.84806452398357 ,-602.9506491411203  , 87.8937275420447    ,200.98354996185654  ,152.23640201469016   ,-195.62452991762592   ,-347.3141746533202  ,-0.9660051654729485     ,-196.26612436533654 ,          0.0 ,          0.0 ,-195.1136501735405   ,-347.8250543585413  ,-196.26612436533654 ,-739.204823850142   , 87.8937275420447    ,246.4016094143192    ,152.23640201469016   ,-2.1993138581648397e-07 ,-1.3757231431372854e-05 ,-8.025748206091332e-07  ,      0.0 ,      0.0 ,      0.0 ,9.084547298373262e-07   ,-1.488561759416882e-05  ,      0.0 ,-1.397716300294931e-05  ,9.053272662137981e-06  ,0.5732550085034905   ,0.2946648442233249      ,-0.005997995722761869   ,-0.0033391805167947105  ,0.006388475128528773   ,-3.1676430553497203    ,0.0 ,-3.973368943820623    ,-23.19387943808092      ,        0.0 ,        0.0 , 0.0
 0.0 ,0.0 ,           0.0 ,            0.0 ,            0.0 ,            0.0 ,              0.0 ,                   0.0 , 840.0 ,111.3281 ,-40.0     ,           0.0 ,           0.0 ,       0.0 ,-212.9588      ,-18.70412   ,2.481904         ,1400.993         ,                 0.0 ,             0.0 ,             0.0 ,                 0.0 ,                 0.0 ,        0.0 ,0.0                    ,            0.0 ,            0.0 ,            0.0 ,              0.0 ,                   0.0 ,  0.0 ,0.0 ,  63.0526890076239   ,-19.13493555082592 ,0.0 ,-150.20647096360102 ,-301.8961131095082  ,-0.9660051654729485     ,-150.84806452398357 ,          0.0 ,          0.0 ,-149.69559048054901 ,-302.40699445125637 ,-150.84806452398357 ,-602.9506491411203  , 87.8937275420447    ,200.98354996185654  ,152.23640201469016   ,-195.62452991762592   ,-347.3141746533202  ,-0.9660051654729485     ,-196.26612436533654 ,          0.0 ,          0.0 ,-195.1136501735405   ,-347.8250543585413  ,-196.26612436533654 ,-739.204823850142   , 87.8937275420447    ,246.4016094143192    ,152.23640201469016   ,-2.1993138581648397e-07 ,-1.3757231431372854e-05 ,-8.025748206091332e-07  ,      0.0 ,      0.0 ,      0.0 ,9.084547298373262e-07   ,-1.488561759416882e-05  ,      0.0 ,-1.397716300294931e-05  ,9.053272662137981e-06  ,0.5732550085034905   ,0.2946648442233249      ,-0.005997995722761869   ,-0.0033391805167947105  ,0.006388475128528773   ,-3.1676430553497203    ,0.0 ,-3.973368943820623    ,-23.19387943808092      ,        0.0 ,        0.0 , 0.0
 0.0 ,0.0 ,           0.0 ,            0.0 ,            0.0 ,            0.0 ,              0.0 ,                   0.0 , 841.0 ,113.2813 ,-40.0     ,           0.0 ,           0.0 ,       0.0 ,-212.6743      ,-18.73256   ,1.83867          ,1401.475         ,                 0.0 ,             0.0 ,             0.0 ,                 0.0 ,                 0.0 ,        0.0 ,0.0                    ,            0.0 ,            0.0 ,            0.0 ,              0.0 ,                   0.0 ,  0.0 ,0.0 ,  63.0526890076239   ,-19.13493555082592 ,0.0 ,-150.20647096360102 ,-301.8961131095082  ,-0.9660051654729485     ,-150.84806452398357 ,          0.0 ,          0.0 ,-149.69559048054901 ,-302.40699445125637 ,-150.84806452398357 ,-602.9506491411203  , 87.8937275420447    ,200.98354996185654  ,152.23640201469016   ,-195.62452991762592   ,-347.3141746533202  ,-0.9660051654729485     ,-196.26612436533654 ,          0.0 ,          0.0 ,-195.1136501735405   ,-347.8250543585413  ,-196.26612436533654 ,-739.204823850142   , 87.8937275420447    ,246.4016094143192    ,152.23640201469016   ,-2.1993138581648397e-07 ,-1.3757231431372854e-05 ,-8.025748206091332e-07  ,      0.0 ,      0.0 ,      0.0 ,9.084547298373262e-07   ,-1.488561759416882e-05  ,      0.0 ,-1.397716300294931e-05  ,9.053272662137981e-06  ,0.5732550085034905   ,0.2946648442233249      ,-0.005997995722761869   ,-0.0033391805167947105  ,0.006388475128528773   ,-3.1676430553497203    ,0.0 ,-3.973368943820623    ,-23.19387943808092      ,        0.0 ,        0.0 , 0.0
 0.0 ,0.0 ,           0.0 ,            0.0 ,            0.0 ,            0.0 ,              0.0 ,                   0.0 , 842.0 ,115.2344 ,-40.0     ,           0.0 ,           0.0 ,       0.0 ,-212.3377      ,-18.76623   ,1.169215         ,1401.996         ,                 0.0 ,             0.0 ,             0.0 ,                 0.0 ,                 0.0 ,        0.0 ,0.0                    ,            0.0 ,            0.0 ,            0.0 ,              0.0 ,                   0.0 ,  0.0 ,0.0 ,  63.0526890076239   ,-19.13493555082592 ,0.0 ,-150.20647096360102 ,-301.8961131095082  ,-0.9660051654729485     ,-150.84806452398357 ,          0.0 ,          0.0 ,-149.69559048054901 ,-302.40699445125637 ,-150.84806452398357 ,-602.9506491411203  , 87.8937275420447    ,200.98354996185654  ,152.23640201469016   ,-195.62452991762592   ,-347.3141746533202  ,-0.9660051654729485     ,-196.26612436533654 ,          0.0 ,          0.0 ,-195.1136501735405   ,-347.8250543585413  ,-196.26612436533654 ,-739.204823850142   , 87.8937275420447    ,246.4016094143192    ,152.23640201469016   ,-2.1993138581648397e-07 ,-1.3757231431372854e-05 ,-8.025748206091332e-07  ,      0.0 ,      0.0 ,      0.0 ,9.084547298373262e-07   ,-1.488561759416882e-05  ,      0.0 ,-1.397716300294931e-05  ,9.053272662137981e-06  ,0.5732550085034905   ,0.2946648442233249      ,-0.005997995722761869   ,-0.0033391805167947105  ,0.006388475128528773   ,-3.1676430553497203    ,0.0 ,-3.973368943820623    ,-23.19387943808092      ,        0.0 ,        0.0 , 0.0
 0.0 ,0.0 ,           0.0 ,            0.0 ,            0.0 ,            0.0 ,              0.0 ,                   0.0 , 843.0 ,117.1875 ,-40.0     ,           0.0 ,           0.0 ,       0.0 ,-211.9489      ,-18.80511   ,0.5672181        ,1402.597         ,                 0.0 ,             0.0 ,             0.0 ,                 0.0 ,                 0.0 ,        0.0 ,0.0                    ,            0.0 ,            0.0 ,            0.0 ,              0.0 ,                   0.0 ,  0.0 ,0.0 ,  63.0526890076239   ,-19.13493555082592 ,0.0 ,-150.20647096360102 ,-301.8961131095082  ,-0.9660051654729485     ,-150.84806452398357 ,          0.0 ,          0.0 ,-149.69559048054901 ,-302.40699445125637 ,-150.84806452398357 ,-602.9506491411203  , 87.8937275420447    ,200.98354996185654  ,152.23640201469016   ,-195.62452991762592   ,-347.3141746533202  ,-0.9660051654729485     ,-196.26612436533654 ,          0.0 ,          0.0 ,-195.1136501735405   ,-347.8250543585413  ,-196.26612436533654 ,-739.204823850142   , 87.8937275420447    ,246.4016094143192    ,152.23640201469016   ,-2.1993138581648397e-07 ,-1.3757231431372854e-05 ,-8.025748206091332e-07  ,      0.0 ,      0.0 ,      0.0 ,9.084547298373262e-07   ,-1.488561759416882e-05  ,      0.0 ,-1.397716300294931e-05  ,9.053272662137981e-06  ,0.5732550085034905   ,0.2946648442233249      ,-0.005997995722761869   ,-0.0033391805167947105  ,0.006388475128528773   ,-3.1676430553497203    ,0.0 ,-3.973368943820623    ,-23.19387943808092      ,        0.0 ,        0.0 , 0.0
 0.0 ,0.0 ,           0.0 ,            0.0 ,            0.0 ,            0.0 ,              0.0 ,                   0.0 , 844.0 ,119.1406 ,-40.0     ,           0.0 ,           0.0 ,       0.0 ,-211.5116      ,-18.84884   ,0.07580193       ,1403.268         ,                 0.0 ,             0.0 ,             0.0 ,                 0.0 ,                 0.0 ,        0.0 ,0.0                    ,            0.0 ,            0.0 ,            0.0 ,              0.0 ,                   0.0 ,  0.0 ,0.0 ,  63.0526890076239   ,-19.13493555082592 ,0.0 ,-150.20647096360102 ,-301.8961131095082  ,-0.9660051654729485     ,-150.84806452398357 ,          0.0 ,          0.0 ,-149.69559048054901 ,-302.40699445125637 ,-150.84806452398357 ,-602.9506491411203  , 87.8937275420447    ,200.98354996185654  ,152.23640201469016   ,-195.62452991762592   ,-347.3141746533202  ,-0.9660051654729485     ,-196.26612436533654 ,          0.0 ,          0.0 ,-195.1136501735405   ,-347.8250543585413  ,-196.26612436533654 ,-739.204823850142   , 87.8937275420447    ,246.4016094143192    ,152.23640201469016   ,-2.1993138581648397e-07 ,-1.3757231431372854e-05 ,-8.025748206091332e-07  ,      0.0 ,      0.0 ,      0.0 ,9.084547298373262e-07   ,-1.488561759416882e-05  ,      0.0 ,-1.397716300294931e-05  ,9.053272662137981e-06  ,0.5732550085034905   ,0.2946648442233249      ,-0.005997995722761869   ,-0.0033391805167947105  ,0.006388475128528773   ,-3.1676430553497203    ,0.0 ,-3.973368943820623    ,-23.19387943808092      ,        0.0 ,        0.0 , 0.0
 0.0 ,0.0 ,           0.0 ,            0.0 ,            0.0 ,            0.0 ,              0.0 ,                   0.0 , 845.0 ,121.0938 ,-40.0     ,           0.0 ,           0.0 ,       0.0 ,-211.0331      ,-18.89669   ,-0.2346895       ,1404.132         ,                 0.0 ,             0.0 ,             0.0 ,                 0.0 ,                 0.0 ,        0.0 ,0.0                    ,            0.0 ,            0.0 ,            0.0 ,              0.0 ,                   0.0 ,  0.0 ,0.0 ,  63.0526890076239   ,-19.13493555082592 ,0.0 ,-150.20647096360102 ,-301.8961131095082  ,-0.9660051654729485     ,-150.84806452398357 ,          0.0 ,          0.0 ,-149.69559048054901 ,-302.40699445125637 ,-150.84806452398357 ,-602.9506491411203  , 87.8937275420447    ,200.98354996185654  ,152.23640201469016   ,-195.62452991762592   ,-347.3141746533202  ,-0.9660051654729485     ,-196.26612436533654 ,          0.0 ,          0.0 ,-195.1136501735405   ,-347.8250543585413  ,-196.26612436533654 ,-739.204823850142   , 87.8937275420447    ,246.4016094143192    ,152.23640201469016   ,-2.1993138581648397e-07 ,-1.3757231431372854e-05 ,-8.025748206091332e-07  ,      0.0 ,      0.0 ,      0.0 ,9.084547298373262e-07   ,-1.488561759416882e-05  ,      0.0 ,-1.397716300294931e-05  ,9.053272662137981e-06  ,0.5732550085034905   ,0.2946648442233249      ,-0.005997995722761869   ,-0.0033391805167947105  ,0.006388475128528773   ,-3.1676430553497203    ,0.0 ,-3.973368943820623    ,-23.19387943808092      ,        0.0 ,        0.0 , 0.0
 0.0 ,0.0 ,           0.0 ,            0.0 ,            0.0 ,            0.0 ,              0.0 ,                   0.0 , 846.0 ,123.0469 ,-40.0     ,           0.0 ,           0.0 ,       0.0 ,-210.5245      ,-18.94755   ,-0.289445        ,1405.192         ,                 0.0 ,             0.0 ,             0.0 ,                 0.0 ,                 0.0 ,        0.0 ,0.0                    ,            0.0 ,            0.0 ,            0.0 ,              0.0 ,                   0.0 ,  0.0 ,0.0 ,  63.0526890076239   ,-19.13493555082592 ,0.0 ,-150.20647096360102 ,-301.8961131095082  ,-0.9660051654729485     ,-150.84806452398357 ,          0.0 ,          0.0 ,-149.69559048054901 ,-302.40699445125637 ,-150.84806452398357 ,-602.9506491411203  , 87.8937275420447    ,200.98354996185654  ,152.23640201469016   ,-195.62452991762592   ,-347.3141746533202  ,-0.9660051654729485     ,-196.26612436533654 ,          0.0 ,          0.0 ,-195.1136501735405   ,-347.8250543585413  ,-196.26612436533654 ,-739.204823850142   , 87.8937275420447    ,246.4016094143192    ,152.23640201469016   ,-2.1993138581648397e-07 ,-1.3757231431372854e-05 ,-8.025748206091332e-07  ,      0.0 ,      0.0 ,      0.0 ,9.084547298373262e-07   ,-1.488561759416882e-05  ,      0.0 ,-1.397716300294931e-05  ,9.053272662137981e-06  ,0.5732550085034905   ,0.2946648442233249      ,-0.005997995722761869   ,-0.0033391805167947105  ,0.006388475128528773   ,-3.1676430553497203    ,0.0 ,-3.973368943820623    ,-23.19387943808092      ,        0.0 ,        0.0 , 0.0
 0.0 ,0.0 ,           0.0 ,            0.0 ,            0.0 ,            0.0 ,              0.0 ,                   0.0 , 847.0 ,125.0    ,-40.0     ,           0.0 ,           0.0 ,       0.0 ,-210.0         ,-19.0       ,-622.3883        ,702.8674         ,                 0.0 ,             0.0 ,             0.0 ,                 0.0 ,                 0.0 ,        0.0 ,0.0                    ,            0.0 ,            0.0 ,            0.0 ,              0.0 ,                   0.0 ,  0.0 ,0.0 ,  63.0526890076239   ,-19.13493555082592 ,0.0 ,-150.20647096360102 ,-301.8961131095082  ,-0.9660051654729485     ,-150.84806452398357 ,          0.0 ,          0.0 ,-149.69559048054901 ,-302.40699445125637 ,-150.84806452398357 ,-602.9506491411203  , 87.8937275420447    ,200.98354996185654  ,152.23640201469016   ,-195.62452991762592   ,-347.3141746533202  ,-0.9660051654729485     ,-196.26612436533654 ,          0.0 ,          0.0 ,-195.1136501735405   ,-347.8250543585413  ,-196.26612436533654 ,-739.204823850142   , 87.8937275420447    ,246.4016094143192    ,152.23640201469016   ,-2.1993138581648397e-07 ,-1.3757231431372854e-05 ,-8.025748206091332e-07  ,      0.0 ,      0.0 ,      0.0 ,9.084547298373262e-07   ,-1.488561759416882e-05  ,      0.0 ,-1.397716300294931e-05  ,9.053272662137981e-06  ,0.5732550085034905   ,0.2946648442233249      ,-0.005997995722761869   ,-0.0033391805167947105  ,0.006388475128528773   ,-3.1676430553497203    ,0.0 ,-3.973368943820623    ,-23.19387943808092      ,        0.0 ,        0.0 , 0.0
 0.0 ,0.0 ,           0.0 ,            0.0 ,            0.0 ,            0.0 ,              0.0 ,                   0.0 , 848.0 ,125.0    ,-38.1     ,           0.0 ,           0.0 ,       0.0 ,-191.0         ,-19.0       ,-1194.957        ,4.159605e-05     ,                 0.0 ,             0.0 ,             0.0 ,                 0.0 ,                 0.0 ,        0.0 ,0.0                    ,            0.0 ,            0.0 ,            0.0 ,              0.0 ,                   0.0 ,  0.0 ,0.0 ,  63.0526890076239   ,-19.13493555082592 ,0.0 ,-150.20647096360102 ,-301.8961131095082  ,-0.9660051654729485     ,-150.84806452398357 ,          0.0 ,          0.0 ,-149.69559048054901 ,-302.40699445125637 ,-150.84806452398357 ,-602.9506491411203  , 87.8937275420447    ,200.98354996185654  ,152.23640201469016   ,-195.62452991762592   ,-347.3141746533202  ,-0.9660051654729485     ,-196.26612436533654 ,          0.0 ,          0.0 ,-195.1136501735405   ,-347.8250543585413  ,-196.26612436533654 ,-739.204823850142   , 87.8937275420447    ,246.4016094143192    ,152.23640201469016   ,-2.1993138581648397e-07 ,-1.3757231431372854e-05 ,-8.025748206091332e-07  ,      0.0 ,      0.0 ,      0.0 ,9.084547298373262e-07   ,-1.488561759416882e-05  ,      0.0 ,-1.397716300294931e-05  ,9.053272662137981e-06  ,0.5732550085034905   ,0.2946648442233249      ,-0.005997995722761869   ,-0.0033391805167947105  ,0.006388475128528773   ,-3.1676430553497203    ,0.0 ,-3.973368943820623    ,-23.19387943808092      ,        0.0 ,        0.0 , 0.0
 0.0 ,0.0 ,           0.0 ,            0.0 ,            0.0 ,            0.0 ,              0.0 ,                   0.0 , 849.0 ,125.0    ,-36.2     ,           0.0 ,           0.0 ,       0.0 ,-172.0         ,-19.0       ,-1107.915        ,3.398559e-05     ,                 0.0 ,             0.0 ,             0.0 ,                 0.0 ,                 0.0 ,        0.0 ,0.0                    ,            0.0 ,            0.0 ,            0.0 ,              0.0 ,                   0.0 ,  0.0 ,0.0 ,  63.0526890076239   ,-19.13493555082592 ,0.0 ,-150.20647096360102 ,-301.8961131095082  ,-0.9660051654729485     ,-150.84806452398357 ,          0.0 ,          0.0 ,-149.69559048054901 ,-302.40699445125637 ,-150.84806452398357 ,-602.9506491411203  , 87.8937275420447    ,200.98354996185654  ,152.23640201469016   ,-195.62452991762592   ,-347.3141746533202  ,-0.9660051654729485     ,-196.26612436533654 ,          0.0 ,          0.0 ,-195.1136501735405   ,-347.8250543585413  ,-196.26612436533654 ,-739.204823850142   , 87.8937275420447    ,246.4016094143192    ,152.23640201469016   ,-2.1993138581648397e-07 ,-1.3757231431372854e-05 ,-8.025748206091332e-07  ,      0.0 ,      0.0 ,      0.0 ,9.084547298373262e-07   ,-1.488561759416882e-05  ,      0.0 ,-1.397716300294931e-05  ,9.053272662137981e-06  ,0.5732550085034905   ,0.2946648442233249      ,-0.005997995722761869   ,-0.0033391805167947105  ,0.006388475128528773   ,-3.1676430553497203    ,0.0 ,-3.973368943820623    ,-23.19387943808092      ,        0.0 ,        0.0 , 0.0
 0.0 ,0.0 ,           0.0 ,            0.0 ,            0.0 ,            0.0 ,              0.0 ,                   0.0 , 850.0 ,125.0    ,-34.3     ,           0.0 ,           0.0 ,       0.0 ,-153.0         ,-19.0       ,-1021.244        ,3.895007e-05     ,                 0.0 ,             0.0 ,             0.0 ,                 0.0 ,                 0.0 ,        0.0 ,0.0                    ,            0.0 ,            0.0 ,            0.0 ,              0.0 ,                   0.0 ,  0.0 ,0.0 ,  63.0526890076239   ,-19.13493555082592 ,0.0 ,-150.20647096360102 ,-301.8961131095082  ,-0.9660051654729485     ,-150.84806452398357 ,          0.0 ,          0.0 ,-149.69559048054901 ,-302.40699445125637 ,-150.84806452398357 ,-602.9506491411203  , 87.8937275420447    ,200.98354996185654  ,152.23640201469016   ,-195.62452991762592   ,-347.3141746533202  ,-0.9660051654729485     ,-196.26612436533654 ,          0.0 ,          0.0 ,-195.1136501735405   ,-347.8250543585413  ,-196.26612436533654 ,-739.204823850142   , 87.8937275420447    ,246.4016094143192    ,152.23640201469016   ,-2.1993138581648397e-07 ,-1.3757231431372854e-05 ,-8.025748206091332e-07  ,      0.0 ,      0.0 ,      0.0 ,9.084547298373262e-07   ,-1.488561759416882e-05  ,      0.0 ,-1.397716300294931e-05  ,9.053272662137981e-06  ,0.5732550085034905   ,0.2946648442233249      ,-0.005997995722761869   ,-0.0033391805167947105  ,0.006388475128528773   ,-3.1676430553497203    ,0.0 ,-3.973368943820623    ,-23.19387943808092      ,        0.0 ,        0.0 , 0.0
 0.0 ,0.0 ,           0.0 ,            0.0 ,            0.0 ,            0.0 ,              0.0 ,                   0.0 , 851.0 ,125.0    ,-32.4     ,           0.0 ,           0.0 ,       0.0 ,-134.0         ,-19.0       ,-934.8161        ,5.126478e-05     ,                 0.0 ,             0.0 ,             0.0 ,                 0.0 ,                 0.0 ,        0.0 ,0.0                    ,            0.0 ,            0.0 ,            0.0 ,              0.0 ,                   0.0 ,  0.0 ,0.0 ,  63.0526890076239   ,-19.13493555082592 ,0.0 ,-150.20647096360102 ,-301.8961131095082  ,-0.9660051654729485     ,-150.84806452398357 ,          0.0 ,          0.0 ,-149.69559048054901 ,-302.40699445125637 ,-150.84806452398357 ,-602.9506491411203  , 87.8937275420447    ,200.98354996185654  ,152.23640201469016   ,-195.62452991762592   ,-347.3141746533202  ,-0.9660051654729485     ,-196.26612436533654 ,          0.0 ,          0.0 ,-195.1136501735405   ,-347.8250543585413  ,-196.26612436533654 ,-739.204823850142   , 87.8937275420447    ,246.4016094143192    ,152.23640201469016   ,-2.1993138581648397e-07 ,-1.3757231431372854e-05 ,-8.025748206091332e-07  ,      0.0 ,      0.0 ,      0.0 ,9.084547298373262e-07   ,-1.488561759416882e-05  ,      0.0 ,-1.397716300294931e-05  ,9.053272662137981e-06  ,0.5732550085034905   ,0.2946648442233249      ,-0.005997995722761869   ,-0.0033391805167947105  ,0.006388475128528773   ,-3.1676430553497203    ,0.0 ,-3.973368943820623    ,-23.19387943808092      ,        0.0 ,        0.0 , 0.0
 0.0 ,0.0 ,           0.0 ,            0.0 ,            0.0 ,            0.0 ,              0.0 ,                   0.0 , 852.0 ,125.0    ,-30.5     ,           0.0 ,           0.0 ,       0.0 ,-115.0         ,-19.0       ,-848.5208        ,4.839202e-05     ,                 0.0 ,             0.0 ,             0.0 ,                 0.0 ,                 0.0 ,        0.0 ,0.0                    ,            0.0 ,            0.0 ,            0.0 ,              0.0 ,                   0.0 ,  0.0 ,0.0 ,  63.0526890076239   ,-19.13493555082592 ,0.0 ,-150.20647096360102 ,-301.8961131095082  ,-0.9660051654729485     ,-150.84806452398357 ,          0.0 ,          0.0 ,-149.69559048054901 ,-302.40699445125637 ,-150.84806452398357 ,-602.9506491411203  , 87.8937275420447    ,200.98354996185654  ,152.23640201469016   ,-195.62452991762592   ,-347.3141746533202  ,-0.9660051654729485     ,-196.26612436533654 ,          0.0 ,          0.0 ,-195.1136501735405   ,-347.8250543585413  ,-196.26612436533654 ,-739.204823850142   , 87.8937275420447    ,246.4016094143192    ,152.23640201469016   ,-2.1993138581648397e-07 ,-1.3757231431372854e-05 ,-8.025748206091332e-07  ,      0.0 ,      0.0 ,      0.0 ,9.084547298373262e-07   ,-1.488561759416882e-05  ,      0.0 ,-1.397716300294931e-05  ,9.053272662137981e-06  ,0.5732550085034905   ,0.2946648442233249      ,-0.005997995722761869   ,-0.0033391805167947105  ,0.006388475128528773   ,-3.1676430553497203    ,0.0 ,-3.973368943820623    ,-23.19387943808092      ,        0.0 ,        0.0 , 0.0
 0.0 ,0.0 ,           0.0 ,            0.0 ,            0.0 ,            0.0 ,              0.0 ,                   0.0 , 853.0 ,125.0    ,-28.6     ,           0.0 ,           0.0 ,       0.0 ,-96.0          ,-19.0       ,-762.2923        ,2.218841e-05     ,                 0.0 ,             0.0 ,             0.0 ,                 0.0 ,                 0.0 ,        0.0 ,0.0                    ,            0.0 ,            0.0 ,            0.0 ,              0.0 ,                   0.0 ,  0.0 ,0.0 ,  63.0526890076239   ,-19.13493555082592 ,0.0 ,-150.20647096360102 ,-301.8961131095082  ,-0.9660051654729485     ,-150.84806452398357 ,          0.0 ,          0.0 ,-149.69559048054901 ,-302.40699445125637 ,-150.84806452398357 ,-602.9506491411203  , 87.8937275420447    ,200.98354996185654  ,152.23640201469016   ,-195.62452991762592   ,-347.3141746533202  ,-0.9660051654729485     ,-196.26612436533654 ,          0.0 ,          0.0 ,-195.1136501735405   ,-347.8250543585413  ,-196.26612436533654 ,-739.204823850142   , 87.8937275420447    ,246.4016094143192    ,152.23640201469016   ,-2.1993138581648397e-07 ,-1.3757231431372854e-05 ,-8.025748206091332e-07  ,      0.0 ,      0.0 ,      0.0 ,9.084547298373262e-07   ,-1.488561759416882e-05  ,      0.0 ,-1.397716300294931e-05  ,9.053272662137981e-06  ,0.5732550085034905   ,0.2946648442233249      ,-0.005997995722761869   ,-0.0033391805167947105  ,0.006388475128528773   ,-3.1676430553497203    ,0.0 ,-3.973368943820623    ,-23.19387943808092      ,        0.0 ,        0.0 , 0.0
 0.0 ,0.0 ,           0.0 ,            0.0 ,            0.0 ,            0.0 ,              0.0 ,                   0.0 , 854.0 ,125.0    ,-26.7     ,           0.0 ,           0.0 ,       0.0 ,-77.0          ,-19.0       ,-676.1948        ,3.278449e-05     ,                 0.0 ,             0.0 ,             0.0 ,                 0.0 ,                 0.0 ,        0.0 ,0.0                    ,            0.0 ,            0.0 ,            0.0 ,              0.0 ,                   0.0 ,  0.0 ,0.0 ,  63.0526890076239   ,-19.13493555082592 ,0.0 ,-150.20647096360102 ,-301.8961131095082  ,-0.9660051654729485     ,-150.84806452398357 ,          0.0 ,          0.0 ,-149.69559048054901 ,-302.40699445125637 ,-150.84806452398357 ,-602.9506491411203  , 87.8937275420447    ,200.98354996185654  ,152.23640201469016   ,-195.62452991762592   ,-347.3141746533202  ,-0.9660051654729485     ,-196.26612436533654 ,          0.0 ,          0.0 ,-195.1136501735405   ,-347.8250543585413  ,-196.26612436533654 ,-739.204823850142   , 87.8937275420447    ,246.4016094143192    ,152.23640201469016   ,-2.1993138581648397e-07 ,-1.3757231431372854e-05 ,-8.025748206091332e-07  ,      0.0 ,      0.0 ,      0.0 ,9.084547298373262e-07   ,-1.488561759416882e-05  ,      0.0 ,-1.397716300294931e-05  ,9.053272662137981e-06  ,0.5732550085034905   ,0.2946648442233249      ,-0.005997995722761869   ,-0.0033391805167947105  ,0.006388475128528773   ,-3.1676430553497203    ,0.0 ,-3.973368943820623    ,-23.19387943808092      ,        0.0 ,        0.0 , 0.0
 0.0 ,0.0 ,           0.0 ,            0.0 ,            0.0 ,            0.0 ,              0.0 ,                   0.0 , 855.0 ,125.0    ,-24.8     ,           0.0 ,           0.0 ,       0.0 ,-58.0          ,-19.0       ,-590.187         ,4.878353e-05     ,                 0.0 ,             0.0 ,             0.0 ,                 0.0 ,                 0.0 ,        0.0 ,0.0                    ,            0.0 ,            0.0 ,            0.0 ,              0.0 ,                   0.0 ,  0.0 ,0.0 ,  63.0526890076239   ,-19.13493555082592 ,0.0 ,-150.20647096360102 ,-301.8961131095082  ,-0.9660051654729485     ,-150.84806452398357 ,          0.0 ,          0.0 ,-149.69559048054901 ,-302.40699445125637 ,-150.84806452398357 ,-602.9506491411203  , 87.8937275420447    ,200.98354996185654  ,152.23640201469016   ,-195.62452991762592   ,-347.3141746533202  ,-0.9660051654729485     ,-196.26612436533654 ,          0.0 ,          0.0 ,-195.1136501735405   ,-347.8250543585413  ,-196.26612436533654 ,-739.204823850142   , 87.8937275420447    ,246.4016094143192    ,152.23640201469016   ,-2.1993138581648397e-07 ,-1.3757231431372854e-05 ,-8.025748206091332e-07  ,      0.0 ,      0.0 ,      0.0 ,9.084547298373262e-07   ,-1.488561759416882e-05  ,      0.0 ,-1.397716300294931e-05  ,9.053272662137981e-06  ,0.5732550085034905   ,0.2946648442233249      ,-0.005997995722761869   ,-0.0033391805167947105  ,0.006388475128528773   ,-3.1676430553497203    ,0.0 ,-3.973368943820623    ,-23.19387943808092      ,        0.0 ,        0.0 , 0.0
 0.0 ,0.0 ,           0.0 ,            0.0 ,            0.0 ,            0.0 ,              0.0 ,                   0.0 , 856.0 ,125.0    ,-22.9     ,           0.0 ,           0.0 ,       0.0 ,-39.0          ,-19.0       ,-504.067         ,-6.461213e-05    ,                 0.0 ,             0.0 ,             0.0 ,                 0.0 ,                 0.0 ,        0.0 ,0.0                    ,            0.0 ,            0.0 ,            0.0 ,              0.0 ,                   0.0 ,  0.0 ,0.0 ,  63.0526890076239   ,-19.13493555082592 ,0.0 ,-150.20647096360102 ,-301.8961131095082  ,-0.9660051654729485     ,-150.84806452398357 ,          0.0 ,          0.0 ,-149.69559048054901 ,-302.40699445125637 ,-150.84806452398357 ,-602.9506491411203  , 87.8937275420447    ,200.98354996185654  ,152.23640201469016   ,-195.62452991762592   ,-347.3141746533202  ,-0.9660051654729485     ,-196.26612436533654 ,          0.0 ,          0.0 ,-195.1136501735405   ,-347.8250543585413  ,-196.26612436533654 ,-739.204823850142   , 87.8937275420447    ,246.4016094143192    ,152.23640201469016   ,-2.1993138581648397e-07 ,-1.3757231431372854e-05 ,-8.025748206091332e-07  ,      0.0 ,      0.0 ,      0.0 ,9.084547298373262e-07   ,-1.488561759416882e-05  ,      0.0 ,-1.397716300294931e-05  ,9.053272662137981e-06  ,0.5732550085034905   ,0.2946648442233249      ,-0.005997995722761869   ,-0.0033391805167947105  ,0.006388475128528773   ,-3.1676430553497203    ,0.0 ,-3.973368943820623    ,-23.19387943808092      ,        0.0 ,        0.0 , 0.0
 0.0 ,0.0 ,           0.0 ,            0.0 ,            0.0 ,            0.0 ,              0.0 ,                   0.0 , 857.0 ,85.3239  ,-22.76697 ,           0.0 ,           0.0 ,       0.0 ,-41.59404      ,-18.60756   ,-0.3970754       ,0.004786799      ,                 0.0 ,             0.0 ,             0.0 ,                 0.0 ,                 0.0 ,        0.0 ,2.6891802416260693     ,            0.0 ,            0.0 ,            0.0 ,              0.0 ,                   0.0 ,  0.0 ,0.0 ,1190.1038360502835   ,1.0                ,0.0 ,-197.34670912918594 ,-418.606676598329   ,-11.697067129692725     ,-208.09010815707168 ,          0.0 ,          0.0 ,-190.25571395720954 ,-425.69764068832956 ,-208.09010815707168 ,-824.0434689943862  ,131.214860756163     ,274.681166879553    ,227.27083887675676   ,-239.3927835152996    ,-460.6527447926673  ,-11.697067129692725     ,-250.13617635140992 ,          0.0 ,          0.0 ,-232.30172561707445  ,-467.74371507444323 ,-250.13617635140992 ,-950.1814288641815  ,131.214860756163     ,316.7271723476425    ,227.27083887675676   ,5.14815774132018e-07    ,-1.5741114174666802e-05 ,8.196854503745265e-06   ,      0.0 ,      0.0 ,      0.0 ,1.752102040668978e-06   ,-1.6978398480305324e-05 ,      0.0 ,-1.522629908532304e-05  ,1.0385810160811379e-05 ,1.0                  ,-0.005617174123238565   ,-0.0005066656440751719  ,0.0                     ,0.005640101156256506   ,-42.0460568874436      ,0.0 ,0.0                   ,0.0                     ,        0.0 ,        0.0 , 0.0
 0.0 ,0.0 ,           0.0 ,            0.0 ,            0.0 ,            0.0 ,              0.0 ,                   0.0 , 858.0 ,84.21813 ,-24.26701 ,           0.0 ,           0.0 ,       0.0 ,-56.55851      ,-18.61116   ,0.004425526      ,0.006096897      ,                 0.0 ,             0.0 ,             0.0 ,                 0.0 ,                 0.0 ,        0.0 ,4.0                    ,            0.0 ,            0.0 ,            0.0 ,              0.0 ,                   0.0 ,  0.0 ,0.0 ,1200.1479311031226   ,1.0                ,0.0 ,-210.9654229891213  ,-446.4661216034706  ,-5.088734369542344      ,-221.7234733696726  ,          0.0 ,          0.0 ,-207.16891730493205 ,-450.2626656494841  ,-221.7234733696726  ,-879.155043458461   ,136.3628289740429    ,293.0516776042261   ,236.18737230385858   ,-265.74252229652654   ,-501.24319541467935 ,-5.088734369542344      ,-276.5005471808813  ,          0.0 ,          0.0 ,-261.9460143924924   ,-505.0397265950651  ,-276.5005471808813  ,-1043.486428515049  ,136.3628289740429    ,347.8287875574141    ,236.18737230385858   ,1.8215845463766397e-06  ,-3.286001259114965e-05  ,5.8589245725207225e-06  ,      0.0 ,      0.0 ,      0.0 ,2.546517958120928e-06   ,-3.3584947565432486e-05 ,      0.0 ,-3.1038427218038056e-05 ,2.0175838710424376e-05 ,0.8823188128795927   ,0.38199987678858827     ,-0.0011980117669591409  ,-9.306118212804711e-05  ,0.0016264510835511034  ,-37.15826137519112     ,0.0 ,-17.61776751173973    ,-17.61776751173973      ,        0.0 ,        0.0 , 0.0
 0.0 ,0.0 ,           0.0 ,            0.0 ,            0.0 ,            0.0 ,              0.0 ,                   0.0 , 859.0 ,82.70545 ,-25.35542 ,           0.0 ,           0.0 ,       0.0 ,-67.40301      ,-18.61512   ,0.1847381        ,-0.03408533      ,                 0.0 ,             0.0 ,             0.0 ,                 0.0 ,                 0.0 ,        0.0 ,3.5805267927404474     ,            0.0 ,            0.0 ,            0.0 ,              0.0 ,                   0.0 ,  0.0 ,0.0 ,1170.8129309580297   ,1.0                ,0.0 ,-226.6115173278315  ,-467.01764023575066 ,-5.342845099016396      ,-233.57919384929932 ,          0.0 ,          0.0 ,-225.33255008384987 ,-468.2966074797323  ,-233.57919384929932 ,-927.2082920045789  ,137.95874356110488   ,309.06941131729997  ,238.95153875355402   ,-293.3528249325119    ,-533.7589478404311  ,-5.342845099016396      ,-300.32050145397966 ,          0.0 ,          0.0 ,-292.07379963585095  ,-535.0379150844127  ,-300.32050145397966 ,-1127.432088976658  ,137.95874356110488   ,375.8107189219803    ,238.95153875355402   ,2.552538344674663e-06   ,-2.1068112748275982e-05 ,2.12342700198725e-06    ,      0.0 ,      0.0 ,      0.0 ,2.8399858101762865e-06  ,-2.135556085145352e-05  ,      0.0 ,-1.8515574172745944e-05 ,1.3264619039714932e-05 ,0.6570546306988787   ,0.9863631998253328      ,-0.0039225286218957     ,-0.0003469737503537617  ,8.081547821607895e-05  ,-0.9364927203099125    ,0.0 ,-65.80087750412541    ,-65.80087750412541      ,        0.0 ,        0.0 , 0.0
 0.0 ,0.0 ,           0.0 ,            0.0 ,            0.0 ,            0.0 ,              0.0 ,                   0.0 , 860.0 ,80.93178 ,-25.92721 ,           0.0 ,           0.0 ,       0.0 ,-73.08081      ,-18.61913   ,0.09052353       ,-0.04510785      ,                 0.0 ,             0.0 ,             0.0 ,                 0.0 ,                 0.0 ,        0.0 ,2.6537110216067346     ,            0.0 ,            0.0 ,            0.0 ,              0.0 ,                   0.0 ,  0.0 ,0.0 ,1183.5764993322719   ,1.0                ,0.0 ,-232.94219922484018 ,-473.8605371806618  ,-0.9840663296706722     ,-237.8133741077947  ,          0.0 ,          0.0 ,-232.78805754621396 ,-474.014678859288   ,-237.8133741077947  ,-944.6161451421945  ,137.8511050626864    ,314.8720599236974   ,238.76511429714694   ,-306.2859992195624    ,-547.2043718042818  ,-0.9840663296706722     ,-311.15720873141476 ,          0.0 ,          0.0 ,-306.1318921698341   ,-547.358513482908   ,-311.15720873141476 ,-1164.647792361161  ,137.8511050626864    ,388.2158599184197    ,238.76511429714694   ,3.3097541029419055e-06  ,-2.2810069135678292e-05 ,2.923786291325243e-06   ,      0.0 ,      0.0 ,      0.0 ,3.4016963362452578e-06  ,-2.2902013534807496e-05 ,      0.0 ,-1.9500315246887388e-05 ,1.4353541725827438e-05 ,0.8736338668425038   ,0.3867160401707217      ,-0.0018185258891526795  ,-0.00010482208709602022 ,0.003628651267799434   ,-42.35193996301336     ,0.0 ,-30.990333657246655   ,-30.990333657246655     ,        0.0 ,        0.0 , 0.0
 0.0 ,0.0 ,           0.0 ,            0.0 ,            0.0 ,            0.0 ,              0.0 ,                   0.0 , 861.0 ,79.06822 ,-25.92721 ,           0.0 ,           0.0 ,       0.0 ,-73.0426       ,-18.62295   ,-0.1572755       ,-0.1127275       ,                 0.0 ,             0.0 ,             0.0 ,                 0.0 ,                 0.0 ,        0.0 ,2.6690142477281156     ,            0.0 ,            0.0 ,            0.0 ,              0.0 ,                   0.0 ,  0.0 ,0.0 ,1296.4244280026246   ,0.9999999999999999 ,0.0 ,-227.37131577934085 ,-460.1449722239163  ,3.8227021914768446      ,-230.96552785767923 ,          0.0 ,          0.0 ,-227.09042483626692 ,-460.4258631669903  ,-230.96552785767923 ,-918.4818326004281  ,133.6258934786419    ,306.16061917315386  ,231.44693639310626   ,-300.6736557501976    ,-533.4473289342648  ,3.8227021914768446      ,-304.2678845680277  ,          0.0 ,          0.0 ,-300.39278154661537  ,-533.7282280568805  ,-304.2678845680277  ,-1138.388686048524  ,133.6258934786419    ,379.4629591440106    ,231.44693639310626   ,3.028354473702224e-06   ,-2.0135022535551942e-05 ,1.885940230614796e-06   ,      0.0 ,      0.0 ,      0.0 ,3.156624922775779e-06   ,-2.0263294412622996e-05 ,      0.0 ,-1.710666865287263e-05  ,1.274302041490572e-05  ,0.9457213778745276   ,0.16281357904456834     ,-0.0008665421584941142  ,-3.916758164224072e-05  ,0.0045876992043101875  ,-59.96757363315554     ,0.0 ,-13.334138415689813   ,-13.334138415689813     ,        0.0 ,        0.0 , 0.0
 0.0 ,0.0 ,           0.0 ,            0.0 ,            0.0 ,            0.0 ,              0.0 ,                   0.0 , 862.0 ,77.29455 ,-25.35542 ,           0.0 ,           0.0 ,       0.0 ,-67.29036      ,-18.62638   ,-0.3083696       ,-0.01528535      ,                 0.0 ,             0.0 ,             0.0 ,                 0.0 ,                 0.0 ,        0.0 ,1.5686816899747167     ,            0.0 ,            0.0 ,            0.0 ,              0.0 ,                   0.0 ,  0.0 ,0.0 ,1063.3712368821732   ,1.0                ,0.0 ,-219.85293804528993 ,-457.7763297693467  ,5.354450830024593       ,-228.21908274422367 ,          0.0 ,          0.0 ,-219.0597552728736  ,-458.569469409932   ,-228.21908274422367 ,-905.8483477809657  ,135.71862008515296   ,301.94944282961274  ,235.07157660723337   ,-285.7493107539623    ,-523.6726621240828  ,5.354450830024593       ,-294.1154554528961  ,          0.0 ,          0.0 ,-284.95613075944067  ,-524.4658421186044  ,-294.1154554528961  ,-1103.537733733595  ,135.71862008515296   ,367.8457751843488    ,235.07157660723337   ,4.429342437898402e-06   ,-3.844565950222948e-05  ,-1.7285842403793213e-06 ,      0.0 ,      0.0 ,      0.0 ,4.575581171356522e-06   ,-3.859189487915535e-05  ,      0.0 ,-3.4016312827465396e-05 ,2.371629086156608e-05  ,0.6623925968470163   ,1.0                     ,-0.0030820100119227723  ,-0.00011450737295425192 ,0.0                    ,0.0030841498180514976  ,0.0 ,-65.89634950664714    ,-65.89634950664714      ,        0.0 ,        0.0 , 0.0
 0.0 ,0.0 ,           0.0 ,            0.0 ,            0.0 ,            0.0 ,              0.0 ,                   0.0 , 863.0 ,75.78187 ,-24.26701 ,           0.0 ,           0.0 ,       0.0 ,-56.37796      ,-18.62921   ,-0.1070104       ,0.02276314       ,                 0.0 ,             0.0 ,             0.0 ,                 0.0 ,                 0.0 ,        0.0 ,0.33108827163647847    ,            0.0 ,            0.0 ,            0.0 ,              0.0 ,                   0.0 ,  0.0 ,0.0 ,1122.6200377030932   ,1.0                ,0.0 ,-202.86719645629083 ,-433.660073530912   ,-1.3069548880003872     ,-215.05620940792807 ,          0.0 ,          0.0 ,-199.1385717082164  ,-437.38874663047295 ,-215.05620940792807 ,-851.5835111922038  ,133.21468030385685   ,283.86115979837695  ,230.7345597069626    ,-259.0939890744379    ,-489.88688270347257 ,-1.3069548880003872     ,-271.28300202607517 ,          0.0 ,          0.0 ,-255.36531597487692  ,-493.61553924862    ,-271.28300202607517 ,-1020.2639254524992 ,133.21468030385685   ,340.087952416524     ,230.7345597069626    ,3.70598359443946e-07    ,-2.572623743711123e-06  ,6.129404063978962e-07   ,      0.0 ,      0.0 ,      0.0 ,4.0217159920374386e-07  ,-2.604196321294378e-06  ,      0.0 ,-2.2020250531789056e-06 ,1.6320658640283138e-06 ,0.7547038275699585   ,0.8338370287486864      ,-0.0017416372309643114  ,-0.00019640682610127226 ,0.0006190460052151444  ,-9.070489188005673     ,0.0 ,-47.15457183423297    ,-47.15457183423297      ,        0.0 ,        0.0 , 0.0
 0.0 ,0.0 ,           0.0 ,            0.0 ,            0.0 ,            0.0 ,              0.0 ,                   0.0 , 864.0 ,74.6761  ,-22.76697 ,           0.0 ,           0.0 ,       0.0 ,-41.35769      ,-18.6312    ,0.3797841        ,0.006306778      ,                 0.0 ,             0.0 ,             0.0 ,                 0.0 ,                 0.0 ,        0.0 ,1.2856418467260198     ,            0.0 ,            0.0 ,            0.0 ,              0.0 ,                   0.0 ,  0.0 ,0.0 ,1160.2249167669352   ,1.0                ,0.0 ,-193.28292010132375 ,-407.2005365613444  ,6.798015806784954       ,-201.7784714880645  ,          0.0 ,          0.0 ,-185.56875696624027 ,-414.9147636358329  ,-201.7784714880645  ,-802.2619920901377  ,128.11157534058194   ,267.420654508651    ,221.89573532019585   ,-233.13548424581754   ,-447.05319320942783 ,6.798015806784954       ,-241.63107169315333 ,          0.0 ,          0.0 ,-225.4213136143237   ,-454.7673277803267  ,-241.63107169315333 ,-921.8198749203773  ,128.11157534058194   ,307.2732472173294    ,221.89573532019585   ,2.684671626917668e-07   ,-2.7605271735469457e-05 ,-3.4956468289852248e-06 ,      0.0 ,      0.0 ,      0.0 ,1.4722119495338367e-06  ,-2.8809017964735326e-05 ,      0.0 ,-2.7336804368953694e-05 ,1.7082842090348932e-05 ,0.8144884695149066   ,0.638052545799835       ,-0.001439383721628961   ,-2.1041189437660654e-05 ,0.0013417501926064896  ,-17.46531041036905     ,0.0 ,-22.385858815602017   ,-22.385858815602017     ,        0.0 ,        0.0 , 0.0
 0.0 ,0.0 ,           0.0 ,            0.0 ,            0.0 ,            0.0 ,              0.0 ,                   0.0 , 865.0 ,0.0      ,-30.83333 ,           0.0 ,           0.0 ,       0.0 ,-118.3333      ,-19.0       ,856.0205         ,-0.006146001     ,                 0.0 ,             0.0 ,             0.0 ,                 0.0 ,                 0.0 ,        0.0 ,0.0                    ,            0.0 ,            0.0 ,            0.0 ,              0.0 ,                   0.0 ,  0.0 ,0.0 ,  63.0526890076239   ,-19.13493555082592 ,0.0 ,-150.20647096360102 ,-301.8961131095082  ,-0.9660051654729485     ,-150.84806452398357 ,          0.0 ,          0.0 ,-149.69559048054901 ,-302.40699445125637 ,-150.84806452398357 ,-602.9506491411203  , 87.8937275420447    ,200.98354996185654  ,152.23640201469016   ,-195.62452991762592   ,-347.3141746533202  ,-0.9660051654729485     ,-196.26612436533654 ,          0.0 ,          0.0 ,-195.1136501735405   ,-347.8250543585413  ,-196.26612436533654 ,-739.204823850142   , 87.8937275420447    ,246.4016094143192    ,152.23640201469016   ,-2.1993138581648397e-07 ,-1.3757231431372854e-05 ,-8.025748206091332e-07  ,      0.0 ,      0.0 ,      0.0 ,9.084547298373262e-07   ,-1.488561759416882e-05  ,      0.0 ,-1.397716300294931e-05  ,9.053272662137981e-06  ,0.5732550085034905   ,0.2946648442233249      ,-0.005997995722761869   ,-0.0033391805167947105  ,0.006388475128528773   ,-3.1676430553497203    ,0.0 ,-3.973368943820623    ,-23.19387943808092      ,        0.0 ,        0.0 , 0.0
 0.0 ,0.0 ,           0.0 ,            0.0 ,            0.0 ,            0.0 ,              0.0 ,                   0.0 , 866.0 ,-0.0     ,-32.66667 ,           0.0 ,           0.0 ,       0.0 ,-136.6667      ,-19.0       ,932.9423         ,-0.002626665     ,                 0.0 ,             0.0 ,             0.0 ,                 0.0 ,                 0.0 ,        0.0 ,0.0                    ,            0.0 ,            0.0 ,            0.0 ,              0.0 ,                   0.0 ,  0.0 ,0.0 ,  63.0526890076239   ,-19.13493555082592 ,0.0 ,-150.20647096360102 ,-301.8961131095082  ,-0.9660051654729485     ,-150.84806452398357 ,          0.0 ,          0.0 ,-149.69559048054901 ,-302.40699445125637 ,-150.84806452398357 ,-602.9506491411203  , 87.8937275420447    ,200.98354996185654  ,152.23640201469016   ,-195.62452991762592   ,-347.3141746533202  ,-0.9660051654729485     ,-196.26612436533654 ,          0.0 ,          0.0 ,-195.1136501735405   ,-347.8250543585413  ,-196.26612436533654 ,-739.204823850142   , 87.8937275420447    ,246.4016094143192    ,152.23640201469016   ,-2.1993138581648397e-07 ,-1.3757231431372854e-05 ,-8.025748206091332e-07  ,      0.0 ,      0.0 ,      0.0 ,9.084547298373262e-07   ,-1.488561759416882e-05  ,      0.0 ,-1.397716300294931e-05  ,9.053272662137981e-06  ,0.5732550085034905   ,0.2946648442233249      ,-0.005997995722761869   ,-0.0033391805167947105  ,0.006388475128528773   ,-3.1676430553497203    ,0.0 ,-3.973368943820623    ,-23.19387943808092      ,        0.0 ,        0.0 , 0.0
 0.0 ,0.0 ,           0.0 ,            0.0 ,            0.0 ,            0.0 ,              0.0 ,                   0.0 , 867.0 ,-0.0     ,-34.5     ,           0.0 ,           0.0 ,       0.0 ,-155.0         ,-19.0       ,1013.311         ,-0.0006887344    ,                 0.0 ,             0.0 ,             0.0 ,                 0.0 ,                 0.0 ,        0.0 ,0.0                    ,            0.0 ,            0.0 ,            0.0 ,              0.0 ,                   0.0 ,  0.0 ,0.0 ,  63.0526890076239   ,-19.13493555082592 ,0.0 ,-150.20647096360102 ,-301.8961131095082  ,-0.9660051654729485     ,-150.84806452398357 ,          0.0 ,          0.0 ,-149.69559048054901 ,-302.40699445125637 ,-150.84806452398357 ,-602.9506491411203  , 87.8937275420447    ,200.98354996185654  ,152.23640201469016   ,-195.62452991762592   ,-347.3141746533202  ,-0.9660051654729485     ,-196.26612436533654 ,          0.0 ,          0.0 ,-195.1136501735405   ,-347.8250543585413  ,-196.26612436533654 ,-739.204823850142   , 87.8937275420447    ,246.4016094143192    ,152.23640201469016   ,-2.1993138581648397e-07 ,-1.3757231431372854e-05 ,-8.025748206091332e-07  ,      0.0 ,      0.0 ,      0.0 ,9.084547298373262e-07   ,-1.488561759416882e-05  ,      0.0 ,-1.397716300294931e-05  ,9.053272662137981e-06  ,0.5732550085034905   ,0.2946648442233249      ,-0.005997995722761869   ,-0.0033391805167947105  ,0.006388475128528773   ,-3.1676430553497203    ,0.0 ,-3.973368943820623    ,-23.19387943808092      ,        0.0 ,        0.0 , 0.0
 0.0 ,0.0 ,           0.0 ,            0.0 ,            0.0 ,            0.0 ,              0.0 ,                   0.0 , 868.0 ,0.0      ,-36.33333 ,           0.0 ,           0.0 ,       0.0 ,-173.3333      ,-19.0       ,1094.094         ,-0.0002755139    ,                 0.0 ,             0.0 ,             0.0 ,                 0.0 ,                 0.0 ,        0.0 ,0.0                    ,            0.0 ,            0.0 ,            0.0 ,              0.0 ,                   0.0 ,  0.0 ,0.0 ,  63.0526890076239   ,-19.13493555082592 ,0.0 ,-150.20647096360102 ,-301.8961131095082  ,-0.9660051654729485     ,-150.84806452398357 ,          0.0 ,          0.0 ,-149.69559048054901 ,-302.40699445125637 ,-150.84806452398357 ,-602.9506491411203  , 87.8937275420447    ,200.98354996185654  ,152.23640201469016   ,-195.62452991762592   ,-347.3141746533202  ,-0.9660051654729485     ,-196.26612436533654 ,          0.0 ,          0.0 ,-195.1136501735405   ,-347.8250543585413  ,-196.26612436533654 ,-739.204823850142   , 87.8937275420447    ,246.4016094143192    ,152.23640201469016   ,-2.1993138581648397e-07 ,-1.3757231431372854e-05 ,-8.025748206091332e-07  ,      0.0 ,      0.0 ,      0.0 ,9.084547298373262e-07   ,-1.488561759416882e-05  ,      0.0 ,-1.397716300294931e-05  ,9.053272662137981e-06  ,0.5732550085034905   ,0.2946648442233249      ,-0.005997995722761869   ,-0.0033391805167947105  ,0.006388475128528773   ,-3.1676430553497203    ,0.0 ,-3.973368943820623    ,-23.19387943808092      ,        0.0 ,        0.0 , 0.0
 0.0 ,0.0 ,           0.0 ,            0.0 ,            0.0 ,            0.0 ,              0.0 ,                   0.0 , 869.0 ,0.0      ,-38.16667 ,           0.0 ,           0.0 ,       0.0 ,-191.6667      ,-19.0       ,1175.09          ,9.977124e-05     ,                 0.0 ,             0.0 ,             0.0 ,                 0.0 ,                 0.0 ,        0.0 ,0.0                    ,            0.0 ,            0.0 ,            0.0 ,              0.0 ,                   0.0 ,  0.0 ,0.0 ,  63.0526890076239   ,-19.13493555082592 ,0.0 ,-150.20647096360102 ,-301.8961131095082  ,-0.9660051654729485     ,-150.84806452398357 ,          0.0 ,          0.0 ,-149.69559048054901 ,-302.40699445125637 ,-150.84806452398357 ,-602.9506491411203  , 87.8937275420447    ,200.98354996185654  ,152.23640201469016   ,-195.62452991762592   ,-347.3141746533202  ,-0.9660051654729485     ,-196.26612436533654 ,          0.0 ,          0.0 ,-195.1136501735405   ,-347.8250543585413  ,-196.26612436533654 ,-739.204823850142   , 87.8937275420447    ,246.4016094143192    ,152.23640201469016   ,-2.1993138581648397e-07 ,-1.3757231431372854e-05 ,-8.025748206091332e-07  ,      0.0 ,      0.0 ,      0.0 ,9.084547298373262e-07   ,-1.488561759416882e-05  ,      0.0 ,-1.397716300294931e-05  ,9.053272662137981e-06  ,0.5732550085034905   ,0.2946648442233249      ,-0.005997995722761869   ,-0.0033391805167947105  ,0.006388475128528773   ,-3.1676430553497203    ,0.0 ,-3.973368943820623    ,-23.19387943808092      ,        0.0 ,        0.0 , 0.0
 0.0 ,0.0 ,           0.0 ,            0.0 ,            0.0 ,            0.0 ,              0.0 ,                   0.0 , 870.0 ,0.0      ,-40.0     ,           0.0 ,           0.0 ,       0.0 ,-210.0         ,-19.0       ,610.0035         ,719.6458         ,                 0.0 ,             0.0 ,             0.0 ,                 0.0 ,                 0.0 ,        0.0 ,0.0                    ,            0.0 ,            0.0 ,            0.0 ,              0.0 ,                   0.0 ,  0.0 ,0.0 ,  63.0526890076239   ,-19.13493555082592 ,0.0 ,-150.20647096360102 ,-301.8961131095082  ,-0.9660051654729485     ,-150.84806452398357 ,          0.0 ,          0.0 ,-149.69559048054901 ,-302.40699445125637 ,-150.84806452398357 ,-602.9506491411203  , 87.8937275420447    ,200.98354996185654  ,152.23640201469016   ,-195.62452991762592   ,-347.3141746533202  ,-0.9660051654729485     ,-196.26612436533654 ,          0.0 ,          0.0 ,-195.1136501735405   ,-347.8250543585413  ,-196.26612436533654 ,-739.204823850142   , 87.8937275420447    ,246.4016094143192    ,152.23640201469016   ,-2.1993138581648397e-07 ,-1.3757231431372854e-05 ,-8.025748206091332e-07  ,      0.0 ,      0.0 ,      0.0 ,9.084547298373262e-07   ,-1.488561759416882e-05  ,      0.0 ,-1.397716300294931e-05  ,9.053272662137981e-06  ,0.5732550085034905   ,0.2946648442233249      ,-0.005997995722761869   ,-0.0033391805167947105  ,0.006388475128528773   ,-3.1676430553497203    ,0.0 ,-3.973368943820623    ,-23.19387943808092      ,        0.0 ,        0.0 , 0.0
 0.0 ,0.0 ,           0.0 ,            0.0 ,            0.0 ,            0.0 ,              0.0 ,                   0.0 , 871.0 ,1.953125 ,-40.0     ,           0.0 ,           0.0 ,       0.0 ,-210.2902      ,-18.97098   ,-3.392385        ,1439.211         ,                 0.0 ,             0.0 ,             0.0 ,                 0.0 ,                 0.0 ,        0.0 ,0.0                    ,            0.0 ,            0.0 ,            0.0 ,              0.0 ,                   0.0 ,  0.0 ,0.0 ,  63.0526890076239   ,-19.13493555082592 ,0.0 ,-150.20647096360102 ,-301.8961131095082  ,-0.9660051654729485     ,-150.84806452398357 ,          0.0 ,          0.0 ,-149.69559048054901 ,-302.40699445125637 ,-150.84806452398357 ,-602.9506491411203  , 87.8937275420447    ,200.98354996185654  ,152.23640201469016   ,-195.62452991762592   ,-347.3141746533202  ,-0.9660051654729485     ,-196.26612436533654 ,          0.0 ,          0.0 ,-195.1136501735405   ,-347.8250543585413  ,-196.26612436533654 ,-739.204823850142   , 87.8937275420447    ,246.4016094143192    ,152.23640201469016   ,-2.1993138581648397e-07 ,-1.3757231431372854e-05 ,-8.025748206091332e-07  ,      0.0 ,      0.0 ,      0.0 ,9.084547298373262e-07   ,-1.488561759416882e-05  ,      0.0 ,-1.397716300294931e-05  ,9.053272662137981e-06  ,0.5732550085034905   ,0.2946648442233249      ,-0.005997995722761869   ,-0.0033391805167947105  ,0.006388475128528773   ,-3.1676430553497203    ,0.0 ,-3.973368943820623    ,-23.19387943808092      ,        0.0 ,        0.0 , 0.0
 0.0 ,0.0 ,           0.0 ,            0.0 ,            0.0 ,            0.0 ,              0.0 ,                   0.0 , 872.0 ,3.90625  ,-40.0     ,           0.0 ,           0.0 ,       0.0 ,-210.5738      ,-18.94262   ,-6.474883        ,1438.834         ,                 0.0 ,             0.0 ,             0.0 ,                 0.0 ,                 0.0 ,        0.0 ,0.0                    ,            0.0 ,            0.0 ,            0.0 ,              0.0 ,                   0.0 ,  0.0 ,0.0 ,  63.0526890076239   ,-19.13493555082592 ,0.0 ,-150.20647096360102 ,-301.8961131095082  ,-0.9660051654729485     ,-150.84806452398357 ,          0.0 ,          0.0 ,-149.69559048054901 ,-302.40699445125637 ,-150.84806452398357 ,-602.9506491411203  , 87.8937275420447    ,200.98354996185654  ,152.23640201469016   ,-195.62452991762592   ,-347.3141746533202  ,-0.9660051654729485     ,-196.26612436533654 ,          0.0 ,          0.0 ,-195.1136501735405   ,-347.8250543585413  ,-196.26612436533654 ,-739.204823850142   , 87.8937275420447    ,246.4016094143192    ,152.23640201469016   ,-2.1993138581648397e-07 ,-1.3757231431372854e-05 ,-8.025748206091332e-07  ,      0.0 ,      0.0 ,      0.0 ,9.084547298373262e-07   ,-1.488561759416882e-05  ,      0.0 ,-1.397716300294931e-05  ,9.053272662137981e-06  ,0.5732550085034905   ,0.2946648442233249      ,-0.005997995722761869   ,-0.0033391805167947105  ,0.006388475128528773   ,-3.1676430553497203    ,0.0 ,-3.973368943820623    ,-23.19387943808092      ,        0.0 ,        0.0 , 0.0
 0.0 ,0.0 ,           0.0 ,            0.0 ,            0.0 ,            0.0 ,              0.0 ,                   0.0 , 873.0 ,5.859375 ,-40.0     ,           0.0 ,           0.0 ,       0.0 ,-210.8451      ,-18.91549   ,-9.065295        ,1437.796         ,                 0.0 ,             0.0 ,             0.0 ,                 0.0 ,                 0.0 ,        0.0 ,0.0                    ,            0.0 ,            0.0 ,            0.0 ,              0.0 ,                   0.0 ,  0.0 ,0.0 ,  63.0526890076239   ,-19.13493555082592 ,0.0 ,-150.20647096360102 ,-301.8961131095082  ,-0.9660051654729485     ,-150.84806452398357 ,          0.0 ,          0.0 ,-149.69559048054901 ,-302.40699445125637 ,-150.84806452398357 ,-602.9506491411203  , 87.8937275420447    ,200.98354996185654  ,152.23640201469016   ,-195.62452991762592   ,-347.3141746533202  ,-0.9660051654729485     ,-196.26612436533654 ,          0.0 ,          0.0 ,-195.1136501735405   ,-347.8250543585413  ,-196.26612436533654 ,-739.204823850142   , 87.8937275420447    ,246.4016094143192    ,152.23640201469016   ,-2.1993138581648397e-07 ,-1.3757231431372854e-05 ,-8.025748206091332e-07  ,      0.0 ,      0.0 ,      0.0 ,9.084547298373262e-07   ,-1.488561759416882e-05  ,      0.0 ,-1.397716300294931e-05  ,9.053272662137981e-06  ,0.5732550085034905   ,0.2946648442233249      ,-0.005997995722761869   ,-0.0033391805167947105  ,0.006388475128528773   ,-3.1676430553497203    ,0.0 ,-3.973368943820623    ,-23.19387943808092      ,        0.0 ,        0.0 , 0.0
 0.0 ,0.0 ,           0.0 ,            0.0 ,            0.0 ,            0.0 ,              0.0 ,                   0.0 , 874.0 ,7.8125   ,-40.0     ,           0.0 ,           0.0 ,       0.0 ,-211.0995      ,-18.89005   ,-9.899098        ,1434.639         ,                 0.0 ,             0.0 ,             0.0 ,                 0.0 ,                 0.0 ,        0.0 ,0.0                    ,            0.0 ,            0.0 ,            0.0 ,              0.0 ,                   0.0 ,  0.0 ,0.0 ,  63.0526890076239   ,-19.13493555082592 ,0.0 ,-150.20647096360102 ,-301.8961131095082  ,-0.9660051654729485     ,-150.84806452398357 ,          0.0 ,          0.0 ,-149.69559048054901 ,-302.40699445125637 ,-150.84806452398357 ,-602.9506491411203  , 87.8937275420447    ,200.98354996185654  ,152.23640201469016   ,-195.62452991762592   ,-347.3141746533202  ,-0.9660051654729485     ,-196.26612436533654 ,          0.0 ,          0.0 ,-195.1136501735405   ,-347.8250543585413  ,-196.26612436533654 ,-739.204823850142   , 87.8937275420447    ,246.4016094143192    ,152.23640201469016   ,-2.1993138581648397e-07 ,-1.3757231431372854e-05 ,-8.025748206091332e-07  ,      0.0 ,      0.0 ,      0.0 ,9.084547298373262e-07   ,-1.488561759416882e-05  ,      0.0 ,-1.397716300294931e-05  ,9.053272662137981e-06  ,0.5732550085034905   ,0.2946648442233249      ,-0.005997995722761869   ,-0.0033391805167947105  ,0.006388475128528773   ,-3.1676430553497203    ,0.0 ,-3.973368943820623    ,-23.19387943808092      ,        0.0 ,        0.0 , 0.0
 0.0 ,0.0 ,           0.0 ,            0.0 ,            0.0 ,            0.0 ,              0.0 ,                   0.0 , 875.0 ,9.765625 ,-40.0     ,           0.0 ,           0.0 ,       0.0 ,-211.334       ,-18.8666    ,-8.243716        ,1428.854         ,                 0.0 ,             0.0 ,             0.0 ,                 0.0 ,                 0.0 ,        0.0 ,0.0                    ,            0.0 ,            0.0 ,            0.0 ,              0.0 ,                   0.0 ,  0.0 ,0.0 ,  63.0526890076239   ,-19.13493555082592 ,0.0 ,-150.20647096360102 ,-301.8961131095082  ,-0.9660051654729485     ,-150.84806452398357 ,          0.0 ,          0.0 ,-149.69559048054901 ,-302.40699445125637 ,-150.84806452398357 ,-602.9506491411203  , 87.8937275420447    ,200.98354996185654  ,152.23640201469016   ,-195.62452991762592   ,-347.3141746533202  ,-0.9660051654729485     ,-196.26612436533654 ,          0.0 ,          0.0 ,-195.1136501735405   ,-347.8250543585413  ,-196.26612436533654 ,-739.204823850142   , 87.8937275420447    ,246.4016094143192    ,152.23640201469016   ,-2.1993138581648397e-07 ,-1.3757231431372854e-05 ,-8.025748206091332e-07  ,      0.0 ,      0.0 ,      0.0 ,9.084547298373262e-07   ,-1.488561759416882e-05  ,      0.0 ,-1.397716300294931e-05  ,9.053272662137981e-06  ,0.5732550085034905   ,0.2946648442233249      ,-0.005997995722761869   ,-0.0033391805167947105  ,0.006388475128528773   ,-3.1676430553497203    ,0.0 ,-3.973368943820623    ,-23.19387943808092      ,        0.0 ,        0.0 , 0.0
 0.0 ,0.0 ,           0.0 ,            0.0 ,            0.0 ,            0.0 ,              0.0 ,                   0.0 , 876.0 ,11.71875 ,-40.0     ,           0.0 ,           0.0 ,       0.0 ,-211.5468      ,-18.84532   ,-5.212309        ,1421.996         ,                 0.0 ,             0.0 ,             0.0 ,                 0.0 ,                 0.0 ,        0.0 ,0.0                    ,            0.0 ,            0.0 ,            0.0 ,              0.0 ,                   0.0 ,  0.0 ,0.0 ,  63.0526890076239   ,-19.13493555082592 ,0.0 ,-150.20647096360102 ,-301.8961131095082  ,-0.9660051654729485     ,-150.84806452398357 ,          0.0 ,          0.0 ,-149.69559048054901 ,-302.40699445125637 ,-150.84806452398357 ,-602.9506491411203  , 87.8937275420447    ,200.98354996185654  ,152.23640201469016   ,-195.62452991762592   ,-347.3141746533202  ,-0.9660051654729485     ,-196.26612436533654 ,          0.0 ,          0.0 ,-195.1136501735405   ,-347.8250543585413  ,-196.26612436533654 ,-739.204823850142   , 87.8937275420447    ,246.4016094143192    ,152.23640201469016   ,-2.1993138581648397e-07 ,-1.3757231431372854e-05 ,-8.025748206091332e-07  ,      0.0 ,      0.0 ,      0.0 ,9.084547298373262e-07   ,-1.488561759416882e-05  ,      0.0 ,-1.397716300294931e-05  ,9.053272662137981e-06  ,0.5732550085034905   ,0.2946648442233249      ,-0.005997995722761869   ,-0.0033391805167947105  ,0.006388475128528773   ,-3.1676430553497203    ,0.0 ,-3.973368943820623    ,-23.19387943808092      ,        0.0 ,        0.0 , 0.0
 0.0 ,0.0 ,           0.0 ,            0.0 ,            0.0 ,            0.0 ,              0.0 ,                   0.0 , 877.0 ,13.67188 ,-40.0     ,           0.0 ,           0.0 ,       0.0 ,-211.7379      ,-18.82621   ,-2.179966        ,1415.359         ,                 0.0 ,             0.0 ,             0.0 ,                 0.0 ,                 0.0 ,        0.0 ,0.0                    ,            0.0 ,            0.0 ,            0.0 ,              0.0 ,                   0.0 ,  0.0 ,0.0 ,  63.0526890076239   ,-19.13493555082592 ,0.0 ,-150.20647096360102 ,-301.8961131095082  ,-0.9660051654729485     ,-150.84806452398357 ,          0.0 ,          0.0 ,-149.69559048054901 ,-302.40699445125637 ,-150.84806452398357 ,-602.9506491411203  , 87.8937275420447    ,200.98354996185654  ,152.23640201469016   ,-195.62452991762592   ,-347.3141746533202  ,-0.9660051654729485     ,-196.26612436533654 ,          0.0 ,          0.0 ,-195.1136501735405   ,-347.8250543585413  ,-196.26612436533654 ,-739.204823850142   , 87.8937275420447    ,246.4016094143192    ,152.23640201469016   ,-2.1993138581648397e-07 ,-1.3757231431372854e-05 ,-8.025748206091332e-07  ,      0.0 ,      0.0 ,      0.0 ,9.084547298373262e-07   ,-1.488561759416882e-05  ,      0.0 ,-1.397716300294931e-05  ,9.053272662137981e-06  ,0.5732550085034905   ,0.2946648442233249      ,-0.005997995722761869   ,-0.0033391805167947105  ,0.006388475128528773   ,-3.1676430553497203    ,0.0 ,-3.973368943820623    ,-23.19387943808092      ,        0.0 ,        0.0 , 0.0
 0.0 ,0.0 ,           0.0 ,            0.0 ,            0.0 ,            0.0 ,              0.0 ,                   0.0 , 878.0 ,15.625   ,-40.0     ,           0.0 ,           0.0 ,       0.0 ,-211.9079      ,-18.80921   ,0.4773413        ,1409.332         ,                 0.0 ,             0.0 ,             0.0 ,                 0.0 ,                 0.0 ,        0.0 ,0.0                    ,            0.0 ,            0.0 ,            0.0 ,              0.0 ,                   0.0 ,  0.0 ,0.0 ,  63.0526890076239   ,-19.13493555082592 ,0.0 ,-150.20647096360102 ,-301.8961131095082  ,-0.9660051654729485     ,-150.84806452398357 ,          0.0 ,          0.0 ,-149.69559048054901 ,-302.40699445125637 ,-150.84806452398357 ,-602.9506491411203  , 87.8937275420447    ,200.98354996185654  ,152.23640201469016   ,-195.62452991762592   ,-347.3141746533202  ,-0.9660051654729485     ,-196.26612436533654 ,          0.0 ,          0.0 ,-195.1136501735405   ,-347.8250543585413  ,-196.26612436533654 ,-739.204823850142   , 87.8937275420447    ,246.4016094143192    ,152.23640201469016   ,-2.1993138581648397e-07 ,-1.3757231431372854e-05 ,-8.025748206091332e-07  ,      0.0 ,      0.0 ,      0.0 ,9.084547298373262e-07   ,-1.488561759416882e-05  ,      0.0 ,-1.397716300294931e-05  ,9.053272662137981e-06  ,0.5732550085034905   ,0.2946648442233249      ,-0.005997995722761869   ,-0.0033391805167947105  ,0.006388475128528773   ,-3.1676430553497203    ,0.0 ,-3.973368943820623    ,-23.19387943808092      ,        0.0 ,        0.0 , 0.0
 0.0 ,0.0 ,           0.0 ,            0.0 ,            0.0 ,            0.0 ,              0.0 ,                   0.0 , 879.0 ,17.57813 ,-40.0     ,           0.0 ,           0.0 ,       0.0 ,-212.0571      ,-18.79429   ,2.212299         ,1405.798         ,                 0.0 ,             0.0 ,             0.0 ,                 0.0 ,                 0.0 ,        0.0 ,0.0                    ,            0.0 ,            0.0 ,            0.0 ,              0.0 ,                   0.0 ,  0.0 ,0.0 ,  63.0526890076239   ,-19.13493555082592 ,0.0 ,-150.20647096360102 ,-301.8961131095082  ,-0.9660051654729485     ,-150.84806452398357 ,          0.0 ,          0.0 ,-149.69559048054901 ,-302.40699445125637 ,-150.84806452398357 ,-602.9506491411203  , 87.8937275420447    ,200.98354996185654  ,152.23640201469016   ,-195.62452991762592   ,-347.3141746533202  ,-0.9660051654729485     ,-196.26612436533654 ,          0.0 ,          0.0 ,-195.1136501735405   ,-347.8250543585413  ,-196.26612436533654 ,-739.204823850142   , 87.8937275420447    ,246.4016094143192    ,152.23640201469016   ,-2.1993138581648397e-07 ,-1.3757231431372854e-05 ,-8.025748206091332e-07  ,      0.0 ,      0.0 ,      0.0 ,9.084547298373262e-07   ,-1.488561759416882e-05  ,      0.0 ,-1.397716300294931e-05  ,9.053272662137981e-06  ,0.5732550085034905   ,0.2946648442233249      ,-0.005997995722761869   ,-0.0033391805167947105  ,0.006388475128528773   ,-3.1676430553497203    ,0.0 ,-3.973368943820623    ,-23.19387943808092      ,        0.0 ,        0.0 , 0.0
 0.0 ,0.0 ,           0.0 ,            0.0 ,            0.0 ,            0.0 ,              0.0 ,                   0.0 , 880.0 ,19.53125 ,-40.0     ,           0.0 ,           0.0 ,       0.0 ,-212.188       ,-18.7812    ,3.019835         ,1404.325         ,                 0.0 ,             0.0 ,             0.0 ,                 0.0 ,                 0.0 ,        0.0 ,0.0                    ,            0.0 ,            0.0 ,            0.0 ,              0.0 ,                   0.0 ,  0.0 ,0.0 ,  63.0526890076239   ,-19.13493555082592 ,0.0 ,-150.20647096360102 ,-301.8961131095082  ,-0.9660051654729485     ,-150.84806452398357 ,          0.0 ,          0.0 ,-149.69559048054901 ,-302.40699445125637 ,-150.84806452398357 ,-602.9506491411203  , 87.8937275420447    ,200.98354996185654  ,152.23640201469016   ,-195.62452991762592   ,-347.3141746533202  ,-0.9660051654729485     ,-196.26612436533654 ,          0.0 ,          0.0 ,-195.1136501735405   ,-347.8250543585413  ,-196.26612436533654 ,-739.204823850142   , 87.8937275420447    ,246.4016094143192    ,152.23640201469016   ,-2.1993138581648397e-07 ,-1.3757231431372854e-05 ,-8.025748206091332e-07  ,      0.0 ,      0.0 ,      0.0 ,9.084547298373262e-07   ,-1.488561759416882e-05  ,      0.0 ,-1.397716300294931e-05  ,9.053272662137981e-06  ,0.5732550085034905   ,0.2946648442233249      ,-0.005997995722761869   ,-0.0033391805167947105  ,0.006388475128528773   ,-3.1676430553497203    ,0.0 ,-3.973368943820623    ,-23.19387943808092      ,        0.0 ,        0.0 , 0.0
 0.0 ,0.0 ,           0.0 ,            0.0 ,            0.0 ,            0.0 ,              0.0 ,                   0.0 , 881.0 ,21.48438 ,-40.0     ,           0.0 ,           0.0 ,       0.0 ,-212.3032      ,-18.76968   ,3.471688         ,1402.603         ,                 0.0 ,             0.0 ,             0.0 ,                 0.0 ,                 0.0 ,        0.0 ,0.0                    ,            0.0 ,            0.0 ,            0.0 ,              0.0 ,                   0.0 ,  0.0 ,0.0 ,  63.0526890076239   ,-19.13493555082592 ,0.0 ,-150.20647096360102 ,-301.8961131095082  ,-0.9660051654729485     ,-150.84806452398357 ,          0.0 ,          0.0 ,-149.69559048054901 ,-302.40699445125637 ,-150.84806452398357 ,-602.9506491411203  , 87.8937275420447    ,200.98354996185654  ,152.23640201469016   ,-195.62452991762592   ,-347.3141746533202  ,-0.9660051654729485     ,-196.26612436533654 ,          0.0 ,          0.0 ,-195.1136501735405   ,-347.8250543585413  ,-196.26612436533654 ,-739.204823850142   , 87.8937275420447    ,246.4016094143192    ,152.23640201469016   ,-2.1993138581648397e-07 ,-1.3757231431372854e-05 ,-8.025748206091332e-07  ,      0.0 ,      0.0 ,      0.0 ,9.084547298373262e-07   ,-1.488561759416882e-05  ,      0.0 ,-1.397716300294931e-05  ,9.053272662137981e-06  ,0.5732550085034905   ,0.2946648442233249      ,-0.005997995722761869   ,-0.0033391805167947105  ,0.006388475128528773   ,-3.1676430553497203    ,0.0 ,-3.973368943820623    ,-23.19387943808092      ,        0.0 ,        0.0 , 0.0
 0.0 ,0.0 ,           0.0 ,            0.0 ,            0.0 ,            0.0 ,              0.0 ,                   0.0 , 882.0 ,23.4375  ,-40.0     ,           0.0 ,           0.0 ,       0.0 ,-212.4048      ,-18.75952   ,4.479222         ,1400.296         ,                 0.0 ,             0.0 ,             0.0 ,                 0.0 ,                 0.0 ,        0.0 ,0.0                    ,            0.0 ,            0.0 ,            0.0 ,              0.0 ,                   0.0 ,  0.0 ,0.0 ,  63.0526890076239   ,-19.13493555082592 ,0.0 ,-150.20647096360102 ,-301.8961131095082  ,-0.9660051654729485     ,-150.84806452398357 ,          0.0 ,          0.0 ,-149.69559048054901 ,-302.40699445125637 ,-150.84806452398357 ,-602.9506491411203  , 87.8937275420447    ,200.98354996185654  ,152.23640201469016   ,-195.62452991762592   ,-347.3141746533202  ,-0.9660051654729485     ,-196.26612436533654 ,          0.0 ,          0.0 ,-195.1136501735405   ,-347.8250543585413  ,-196.26612436533654 ,-739.204823850142   , 87.8937275420447    ,246.4016094143192    ,152.23640201469016   ,-2.1993138581648397e-07 ,-1.3757231431372854e-05 ,-8.025748206091332e-07  ,      0.0 ,      0.0 ,      0.0 ,9.084547298373262e-07   ,-1.488561759416882e-05  ,      0.0 ,-1.397716300294931e-05  ,9.053272662137981e-06  ,0.5732550085034905   ,0.2946648442233249      ,-0.005997995722761869   ,-0.0033391805167947105  ,0.006388475128528773   ,-3.1676430553497203    ,0.0 ,-3.973368943820623    ,-23.19387943808092      ,        0.0 ,        0.0 , 0.0
 0.0 ,0.0 ,           0.0 ,            0.0 ,            0.0 ,            0.0 ,              0.0 ,                   0.0 , 883.0 ,25.39063 ,-40.0     ,           0.0 ,           0.0 ,       0.0 ,-212.495       ,-18.7505    ,5.088656         ,1398.303         ,                 0.0 ,             0.0 ,             0.0 ,                 0.0 ,                 0.0 ,        0.0 ,0.0                    ,            0.0 ,            0.0 ,            0.0 ,              0.0 ,                   0.0 ,  0.0 ,0.0 ,  63.0526890076239   ,-19.13493555082592 ,0.0 ,-150.20647096360102 ,-301.8961131095082  ,-0.9660051654729485     ,-150.84806452398357 ,          0.0 ,          0.0 ,-149.69559048054901 ,-302.40699445125637 ,-150.84806452398357 ,-602.9506491411203  , 87.8937275420447    ,200.98354996185654  ,152.23640201469016   ,-195.62452991762592   ,-347.3141746533202  ,-0.9660051654729485     ,-196.26612436533654 ,          0.0 ,          0.0 ,-195.1136501735405   ,-347.8250543585413  ,-196.26612436533654 ,-739.204823850142   , 87.8937275420447    ,246.4016094143192    ,152.23640201469016   ,-2.1993138581648397e-07 ,-1.3757231431372854e-05 ,-8.025748206091332e-07  ,      0.0 ,      0.0 ,      0.0 ,9.084547298373262e-07   ,-1.488561759416882e-05  ,      0.0 ,-1.397716300294931e-05  ,9.053272662137981e-06  ,0.5732550085034905   ,0.2946648442233249      ,-0.005997995722761869   ,-0.0033391805167947105  ,0.006388475128528773   ,-3.1676430553497203    ,0.0 ,-3.973368943820623    ,-23.19387943808092      ,        0.0 ,        0.0 , 0.0
 0.0 ,0.0 ,           0.0 ,            0.0 ,            0.0 ,            0.0 ,              0.0 ,                   0.0 , 884.0 ,27.34375 ,-40.0     ,           0.0 ,           0.0 ,       0.0 ,-212.5757      ,-18.74243   ,5.22626          ,1395.853         ,                 0.0 ,             0.0 ,             0.0 ,                 0.0 ,                 0.0 ,        0.0 ,0.0                    ,            0.0 ,            0.0 ,            0.0 ,              0.0 ,                   0.0 ,  0.0 ,0.0 ,  63.0526890076239   ,-19.13493555082592 ,0.0 ,-150.20647096360102 ,-301.8961131095082  ,-0.9660051654729485     ,-150.84806452398357 ,          0.0 ,          0.0 ,-149.69559048054901 ,-302.40699445125637 ,-150.84806452398357 ,-602.9506491411203  , 87.8937275420447    ,200.98354996185654  ,152.23640201469016   ,-195.62452991762592   ,-347.3141746533202  ,-0.9660051654729485     ,-196.26612436533654 ,          0.0 ,          0.0 ,-195.1136501735405   ,-347.8250543585413  ,-196.26612436533654 ,-739.204823850142   , 87.8937275420447    ,246.4016094143192    ,152.23640201469016   ,-2.1993138581648397e-07 ,-1.3757231431372854e-05 ,-8.025748206091332e-07  ,      0.0 ,      0.0 ,      0.0 ,9.084547298373262e-07   ,-1.488561759416882e-05  ,      0.0 ,-1.397716300294931e-05  ,9.053272662137981e-06  ,0.5732550085034905   ,0.2946648442233249      ,-0.005997995722761869   ,-0.0033391805167947105  ,0.006388475128528773   ,-3.1676430553497203    ,0.0 ,-3.973368943820623    ,-23.19387943808092      ,        0.0 ,        0.0 , 0.0
 0.0 ,0.0 ,           0.0 ,            0.0 ,            0.0 ,            0.0 ,              0.0 ,                   0.0 , 885.0 ,29.29688 ,-40.0     ,           0.0 ,           0.0 ,       0.0 ,-212.6483      ,-18.73517   ,4.988345         ,1393.904         ,                 0.0 ,             0.0 ,             0.0 ,                 0.0 ,                 0.0 ,        0.0 ,0.0                    ,            0.0 ,            0.0 ,            0.0 ,              0.0 ,                   0.0 ,  0.0 ,0.0 ,  63.0526890076239   ,-19.13493555082592 ,0.0 ,-150.20647096360102 ,-301.8961131095082  ,-0.9660051654729485     ,-150.84806452398357 ,          0.0 ,          0.0 ,-149.69559048054901 ,-302.40699445125637 ,-150.84806452398357 ,-602.9506491411203  , 87.8937275420447    ,200.98354996185654  ,152.23640201469016   ,-195.62452991762592   ,-347.3141746533202  ,-0.9660051654729485     ,-196.26612436533654 ,          0.0 ,          0.0 ,-195.1136501735405   ,-347.8250543585413  ,-196.26612436533654 ,-739.204823850142   , 87.8937275420447    ,246.4016094143192    ,152.23640201469016   ,-2.1993138581648397e-07 ,-1.3757231431372854e-05 ,-8.025748206091332e-07  ,      0.0 ,      0.0 ,      0.0 ,9.084547298373262e-07   ,-1.488561759416882e-05  ,      0.0 ,-1.397716300294931e-05  ,9.053272662137981e-06  ,0.5732550085034905   ,0.2946648442233249      ,-0.005997995722761869   ,-0.0033391805167947105  ,0.006388475128528773   ,-3.1676430553497203    ,0.0 ,-3.973368943820623    ,-23.19387943808092      ,        0.0 ,        0.0 , 0.0
 0.0 ,0.0 ,           0.0 ,            0.0 ,            0.0 ,            0.0 ,              0.0 ,                   0.0 , 886.0 ,31.25    ,-40.0     ,           0.0 ,           0.0 ,       0.0 ,-212.7141      ,-18.72859   ,4.466942         ,1393.154         ,                 0.0 ,             0.0 ,             0.0 ,                 0.0 ,                 0.0 ,        0.0 ,0.0                    ,            0.0 ,            0.0 ,            0.0 ,              0.0 ,                   0.0 ,  0.0 ,0.0 ,  63.0526890076239   ,-19.13493555082592 ,0.0 ,-150.20647096360102 ,-301.8961131095082  ,-0.9660051654729485     ,-150.84806452398357 ,          0.0 ,          0.0 ,-149.69559048054901 ,-302.40699445125637 ,-150.84806452398357 ,-602.9506491411203  , 87.8937275420447    ,200.98354996185654  ,152.23640201469016   ,-195.62452991762592   ,-347.3141746533202  ,-0.9660051654729485     ,-196.26612436533654 ,          0.0 ,          0.0 ,-195.1136501735405   ,-347.8250543585413  ,-196.26612436533654 ,-739.204823850142   , 87.8937275420447    ,246.4016094143192    ,152.23640201469016   ,-2.1993138581648397e-07 ,-1.3757231431372854e-05 ,-8.025748206091332e-07  ,      0.0 ,      0.0 ,      0.0 ,9.084547298373262e-07   ,-1.488561759416882e-05  ,      0.0 ,-1.397716300294931e-05  ,9.053272662137981e-06  ,0.5732550085034905   ,0.2946648442233249      ,-0.005997995722761869   ,-0.0033391805167947105  ,0.006388475128528773   ,-3.1676430553497203    ,0.0 ,-3.973368943820623    ,-23.19387943808092      ,        0.0 ,        0.0 , 0.0
 0.0 ,0.0 ,           0.0 ,            0.0 ,            0.0 ,            0.0 ,              0.0 ,                   0.0 , 887.0 ,33.20313 ,-40.0     ,           0.0 ,           0.0 ,       0.0 ,-212.7745      ,-18.72255   ,3.607434         ,1392.655         ,                 0.0 ,             0.0 ,             0.0 ,                 0.0 ,                 0.0 ,        0.0 ,0.0                    ,            0.0 ,            0.0 ,            0.0 ,              0.0 ,                   0.0 ,  0.0 ,0.0 ,  63.0526890076239   ,-19.13493555082592 ,0.0 ,-150.20647096360102 ,-301.8961131095082  ,-0.9660051654729485     ,-150.84806452398357 ,          0.0 ,          0.0 ,-149.69559048054901 ,-302.40699445125637 ,-150.84806452398357 ,-602.9506491411203  , 87.8937275420447    ,200.98354996185654  ,152.23640201469016   ,-195.62452991762592   ,-347.3141746533202  ,-0.9660051654729485     ,-196.26612436533654 ,          0.0 ,          0.0 ,-195.1136501735405   ,-347.8250543585413  ,-196.26612436533654 ,-739.204823850142   , 87.8937275420447    ,246.4016094143192    ,152.23640201469016   ,-2.1993138581648397e-07 ,-1.3757231431372854e-05 ,-8.025748206091332e-07  ,      0.0 ,      0.0 ,      0.0 ,9.084547298373262e-07   ,-1.488561759416882e-05  ,      0.0 ,-1.397716300294931e-05  ,9.053272662137981e-06  ,0.5732550085034905   ,0.2946648442233249      ,-0.005997995722761869   ,-0.0033391805167947105  ,0.006388475128528773   ,-3.1676430553497203    ,0.0 ,-3.973368943820623    ,-23.19387943808092      ,        0.0 ,        0.0 , 0.0
 0.0 ,0.0 ,           0.0 ,            0.0 ,            0.0 ,            0.0 ,              0.0 ,                   0.0 , 888.0 ,35.15625 ,-40.0     ,           0.0 ,           0.0 ,       0.0 ,-212.8306      ,-18.71694   ,2.965897         ,1391.674         ,                 0.0 ,             0.0 ,             0.0 ,                 0.0 ,                 0.0 ,        0.0 ,0.0                    ,            0.0 ,            0.0 ,            0.0 ,              0.0 ,                   0.0 ,  0.0 ,0.0 ,  63.0526890076239   ,-19.13493555082592 ,0.0 ,-150.20647096360102 ,-301.8961131095082  ,-0.9660051654729485     ,-150.84806452398357 ,          0.0 ,          0.0 ,-149.69559048054901 ,-302.40699445125637 ,-150.84806452398357 ,-602.9506491411203  , 87.8937275420447    ,200.98354996185654  ,152.23640201469016   ,-195.62452991762592   ,-347.3141746533202  ,-0.9660051654729485     ,-196.26612436533654 ,          0.0 ,          0.0 ,-195.1136501735405   ,-347.8250543585413  ,-196.26612436533654 ,-739.204823850142   , 87.8937275420447    ,246.4016094143192    ,152.23640201469016   ,-2.1993138581648397e-07 ,-1.3757231431372854e-05 ,-8.025748206091332e-07  ,      0.0 ,      0.0 ,      0.0 ,9.084547298373262e-07   ,-1.488561759416882e-05  ,      0.0 ,-1.397716300294931e-05  ,9.053272662137981e-06  ,0.5732550085034905   ,0.2946648442233249      ,-0.005997995722761869   ,-0.0033391805167947105  ,0.006388475128528773   ,-3.1676430553497203    ,0.0 ,-3.973368943820623    ,-23.19387943808092      ,        0.0 ,        0.0 , 0.0
 0.0 ,0.0 ,           0.0 ,            0.0 ,            0.0 ,            0.0 ,              0.0 ,                   0.0 , 889.0 ,37.10938 ,-40.0     ,           0.0 ,           0.0 ,       0.0 ,-212.8831      ,-18.71169   ,2.422692         ,1390.7           ,                 0.0 ,             0.0 ,             0.0 ,                 0.0 ,                 0.0 ,        0.0 ,0.0                    ,            0.0 ,            0.0 ,            0.0 ,              0.0 ,                   0.0 ,  0.0 ,0.0 ,  63.0526890076239   ,-19.13493555082592 ,0.0 ,-150.20647096360102 ,-301.8961131095082  ,-0.9660051654729485     ,-150.84806452398357 ,          0.0 ,          0.0 ,-149.69559048054901 ,-302.40699445125637 ,-150.84806452398357 ,-602.9506491411203  , 87.8937275420447    ,200.98354996185654  ,152.23640201469016   ,-195.62452991762592   ,-347.3141746533202  ,-0.9660051654729485     ,-196.26612436533654 ,          0.0 ,          0.0 ,-195.1136501735405   ,-347.8250543585413  ,-196.26612436533654 ,-739.204823850142   , 87.8937275420447    ,246.4016094143192    ,152.23640201469016   ,-2.1993138581648397e-07 ,-1.3757231431372854e-05 ,-8.025748206091332e-07  ,      0.0 ,      0.0 ,      0.0 ,9.084547298373262e-07   ,-1.488561759416882e-05  ,      0.0 ,-1.397716300294931e-05  ,9.053272662137981e-06  ,0.5732550085034905   ,0.2946648442233249      ,-0.005997995722761869   ,-0.0033391805167947105  ,0.006388475128528773   ,-3.1676430553497203    ,0.0 ,-3.973368943820623    ,-23.19387943808092      ,        0.0 ,        0.0 , 0.0
 0.0 ,0.0 ,           0.0 ,            0.0 ,            0.0 ,            0.0 ,              0.0 ,                   0.0 , 890.0 ,39.0625  ,-40.0     ,           0.0 ,           0.0 ,       0.0 ,-212.9328      ,-18.70672   ,1.947839         ,1389.649         ,                 0.0 ,             0.0 ,             0.0 ,                 0.0 ,                 0.0 ,        0.0 ,0.0                    ,            0.0 ,            0.0 ,            0.0 ,              0.0 ,                   0.0 ,  0.0 ,0.0 ,  63.0526890076239   ,-19.13493555082592 ,0.0 ,-150.20647096360102 ,-301.8961131095082  ,-0.9660051654729485     ,-150.84806452398357 ,          0.0 ,          0.0 ,-149.69559048054901 ,-302.40699445125637 ,-150.84806452398357 ,-602.9506491411203  , 87.8937275420447    ,200.98354996185654  ,152.23640201469016   ,-195.62452991762592   ,-347.3141746533202  ,-0.9660051654729485     ,-196.26612436533654 ,          0.0 ,          0.0 ,-195.1136501735405   ,-347.8250543585413  ,-196.26612436533654 ,-739.204823850142   , 87.8937275420447    ,246.4016094143192    ,152.23640201469016   ,-2.1993138581648397e-07 ,-1.3757231431372854e-05 ,-8.025748206091332e-07  ,      0.0 ,      0.0 ,      0.0 ,9.084547298373262e-07   ,-1.488561759416882e-05  ,      0.0 ,-1.397716300294931e-05  ,9.053272662137981e-06  ,0.5732550085034905   ,0.2946648442233249      ,-0.005997995722761869   ,-0.0033391805167947105  ,0.006388475128528773   ,-3.1676430553497203    ,0.0 ,-3.973368943820623    ,-23.19387943808092      ,        0.0 ,        0.0 , 0.0
 0.0 ,0.0 ,           0.0 ,            0.0 ,            0.0 ,            0.0 ,              0.0 ,                   0.0 , 891.0 ,41.01563 ,-40.0     ,           0.0 ,           0.0 ,       0.0 ,-212.9802      ,-18.70198   ,1.57452          ,1388.805         ,                 0.0 ,             0.0 ,             0.0 ,                 0.0 ,                 0.0 ,        0.0 ,0.0                    ,            0.0 ,            0.0 ,            0.0 ,              0.0 ,                   0.0 ,  0.0 ,0.0 ,  63.0526890076239   ,-19.13493555082592 ,0.0 ,-150.20647096360102 ,-301.8961131095082  ,-0.9660051654729485     ,-150.84806452398357 ,          0.0 ,          0.0 ,-149.69559048054901 ,-302.40699445125637 ,-150.84806452398357 ,-602.9506491411203  , 87.8937275420447    ,200.98354996185654  ,152.23640201469016   ,-195.62452991762592   ,-347.3141746533202  ,-0.9660051654729485     ,-196.26612436533654 ,          0.0 ,          0.0 ,-195.1136501735405   ,-347.8250543585413  ,-196.26612436533654 ,-739.204823850142   , 87.8937275420447    ,246.4016094143192    ,152.23640201469016   ,-2.1993138581648397e-07 ,-1.3757231431372854e-05 ,-8.025748206091332e-07  ,      0.0 ,      0.0 ,      0.0 ,9.084547298373262e-07   ,-1.488561759416882e-05  ,      0.0 ,-1.397716300294931e-05  ,9.053272662137981e-06  ,0.5732550085034905   ,0.2946648442233249      ,-0.005997995722761869   ,-0.0033391805167947105  ,0.006388475128528773   ,-3.1676430553497203    ,0.0 ,-3.973368943820623    ,-23.19387943808092      ,        0.0 ,        0.0 , 0.0
 0.0 ,0.0 ,           0.0 ,            0.0 ,            0.0 ,            0.0 ,              0.0 ,                   0.0 , 892.0 ,42.96875 ,-40.0     ,           0.0 ,           0.0 ,       0.0 ,-213.0257      ,-18.69743   ,1.079049         ,1388.832         ,                 0.0 ,             0.0 ,             0.0 ,                 0.0 ,                 0.0 ,        0.0 ,0.0                    ,            0.0 ,            0.0 ,            0.0 ,              0.0 ,                   0.0 ,  0.0 ,0.0 ,  63.0526890076239   ,-19.13493555082592 ,0.0 ,-150.20647096360102 ,-301.8961131095082  ,-0.9660051654729485     ,-150.84806452398357 ,          0.0 ,          0.0 ,-149.69559048054901 ,-302.40699445125637 ,-150.84806452398357 ,-602.9506491411203  , 87.8937275420447    ,200.98354996185654  ,152.23640201469016   ,-195.62452991762592   ,-347.3141746533202  ,-0.9660051654729485     ,-196.26612436533654 ,          0.0 ,          0.0 ,-195.1136501735405   ,-347.8250543585413  ,-196.26612436533654 ,-739.204823850142   , 87.8937275420447    ,246.4016094143192    ,152.23640201469016   ,-2.1993138581648397e-07 ,-1.3757231431372854e-05 ,-8.025748206091332e-07  ,      0.0 ,      0.0 ,      0.0 ,9.084547298373262e-07   ,-1.488561759416882e-05  ,      0.0 ,-1.397716300294931e-05  ,9.053272662137981e-06  ,0.5732550085034905   ,0.2946648442233249      ,-0.005997995722761869   ,-0.0033391805167947105  ,0.006388475128528773   ,-3.1676430553497203    ,0.0 ,-3.973368943820623    ,-23.19387943808092      ,        0.0 ,        0.0 , 0.0
 0.0 ,0.0 ,           0.0 ,            0.0 ,            0.0 ,            0.0 ,              0.0 ,                   0.0 , 893.0 ,44.92188 ,-40.0     ,           0.0 ,           0.0 ,       0.0 ,-213.0697      ,-18.69303   ,0.1540487        ,1389.82          ,                 0.0 ,             0.0 ,             0.0 ,                 0.0 ,                 0.0 ,        0.0 ,0.0                    ,            0.0 ,            0.0 ,            0.0 ,              0.0 ,                   0.0 ,  0.0 ,0.0 ,  63.0526890076239   ,-19.13493555082592 ,0.0 ,-150.20647096360102 ,-301.8961131095082  ,-0.9660051654729485     ,-150.84806452398357 ,          0.0 ,          0.0 ,-149.69559048054901 ,-302.40699445125637 ,-150.84806452398357 ,-602.9506491411203  , 87.8937275420447    ,200.98354996185654  ,152.23640201469016   ,-195.62452991762592   ,-347.3141746533202  ,-0.9660051654729485     ,-196.26612436533654 ,          0.0 ,          0.0 ,-195.1136501735405   ,-347.8250543585413  ,-196.26612436533654 ,-739.204823850142   , 87.8937275420447    ,246.4016094143192    ,152.23640201469016   ,-2.1993138581648397e-07 ,-1.3757231431372854e-05 ,-8.025748206091332e-07  ,      0.0 ,      0.0 ,      0.0 ,9.084547298373262e-07   ,-1.488561759416882e-05  ,      0.0 ,-1.397716300294931e-05  ,9.053272662137981e-06  ,0.5732550085034905   ,0.2946648442233249      ,-0.005997995722761869   ,-0.0033391805167947105  ,0.006388475128528773   ,-3.1676430553497203    ,0.0 ,-3.973368943820623    ,-23.19387943808092      ,        0.0 ,        0.0 , 0.0
 0.0 ,0.0 ,           0.0 ,            0.0 ,            0.0 ,            0.0 ,              0.0 ,                   0.0 , 894.0 ,46.875   ,-40.0     ,           0.0 ,           0.0 ,       0.0 ,-213.1126      ,-18.68874   ,-0.6045919       ,1390.545         ,                 0.0 ,             0.0 ,             0.0 ,                 0.0 ,                 0.0 ,        0.0 ,0.0                    ,            0.0 ,            0.0 ,            0.0 ,              0.0 ,                   0.0 ,  0.0 ,0.0 ,  63.0526890076239   ,-19.13493555082592 ,0.0 ,-150.20647096360102 ,-301.8961131095082  ,-0.9660051654729485     ,-150.84806452398357 ,          0.0 ,          0.0 ,-149.69559048054901 ,-302.40699445125637 ,-150.84806452398357 ,-602.9506491411203  , 87.8937275420447    ,200.98354996185654  ,152.23640201469016   ,-195.62452991762592   ,-347.3141746533202  ,-0.9660051654729485     ,-196.26612436533654 ,          0.0 ,          0.0 ,-195.1136501735405   ,-347.8250543585413  ,-196.26612436533654 ,-739.204823850142   , 87.8937275420447    ,246.4016094143192    ,152.23640201469016   ,-2.1993138581648397e-07 ,-1.3757231431372854e-05 ,-8.025748206091332e-07  ,      0.0 ,      0.0 ,      0.0 ,9.084547298373262e-07   ,-1.488561759416882e-05  ,      0.0 ,-1.397716300294931e-05  ,9.053272662137981e-06  ,0.5732550085034905   ,0.2946648442233249      ,-0.005997995722761869   ,-0.0033391805167947105  ,0.006388475128528773   ,-3.1676430553497203    ,0.0 ,-3.973368943820623    ,-23.19387943808092      ,        0.0 ,        0.0 , 0.0
 0.0 ,0.0 ,           0.0 ,            0.0 ,            0.0 ,            0.0 ,              0.0 ,                   0.0 , 895.0 ,48.82813 ,-40.0     ,           0.0 ,           0.0 ,       0.0 ,-213.1546      ,-18.68454   ,-0.6223853       ,1390.472         ,                 0.0 ,             0.0 ,             0.0 ,                 0.0 ,                 0.0 ,        0.0 ,0.0                    ,            0.0 ,            0.0 ,            0.0 ,              0.0 ,                   0.0 ,  0.0 ,0.0 ,  63.0526890076239   ,-19.13493555082592 ,0.0 ,-150.20647096360102 ,-301.8961131095082  ,-0.9660051654729485     ,-150.84806452398357 ,          0.0 ,          0.0 ,-149.69559048054901 ,-302.40699445125637 ,-150.84806452398357 ,-602.9506491411203  , 87.8937275420447    ,200.98354996185654  ,152.23640201469016   ,-195.62452991762592   ,-347.3141746533202  ,-0.9660051654729485     ,-196.26612436533654 ,          0.0 ,          0.0 ,-195.1136501735405   ,-347.8250543585413  ,-196.26612436533654 ,-739.204823850142   , 87.8937275420447    ,246.4016094143192    ,152.23640201469016   ,-2.1993138581648397e-07 ,-1.3757231431372854e-05 ,-8.025748206091332e-07  ,      0.0 ,      0.0 ,      0.0 ,9.084547298373262e-07   ,-1.488561759416882e-05  ,      0.0 ,-1.397716300294931e-05  ,9.053272662137981e-06  ,0.5732550085034905   ,0.2946648442233249      ,-0.005997995722761869   ,-0.0033391805167947105  ,0.006388475128528773   ,-3.1676430553497203    ,0.0 ,-3.973368943820623    ,-23.19387943808092      ,        0.0 ,        0.0 , 0.0
 0.0 ,0.0 ,           0.0 ,            0.0 ,            0.0 ,            0.0 ,              0.0 ,                   0.0 , 896.0 ,50.78125 ,-40.0     ,           0.0 ,           0.0 ,       0.0 ,-213.1957      ,-18.68043   ,-0.5640801       ,1389.931         ,                 0.0 ,             0.0 ,             0.0 ,                 0.0 ,                 0.0 ,        0.0 ,0.0                    ,            0.0 ,            0.0 ,            0.0 ,              0.0 ,                   0.0 ,  0.0 ,0.0 ,  63.0526890076239   ,-19.13493555082592 ,0.0 ,-150.20647096360102 ,-301.8961131095082  ,-0.9660051654729485     ,-150.84806452398357 ,          0.0 ,          0.0 ,-149.69559048054901 ,-302.40699445125637 ,-150.84806452398357 ,-602.9506491411203  , 87.8937275420447    ,200.98354996185654  ,152.23640201469016   ,-195.62452991762592   ,-347.3141746533202  ,-0.9660051654729485     ,-196.26612436533654 ,          0.0 ,          0.0 ,-195.1136501735405   ,-347.8250543585413  ,-196.26612436533654 ,-739.204823850142   , 87.8937275420447    ,246.4016094143192    ,152.23640201469016   ,-2.1993138581648397e-07 ,-1.3757231431372854e-05 ,-8.025748206091332e-07  ,      0.0 ,      0.0 ,      0.0 ,9.084547298373262e-07   ,-1.488561759416882e-05  ,      0.0 ,-1.397716300294931e-05  ,9.053272662137981e-06  ,0.5732550085034905   ,0.2946648442233249      ,-0.005997995722761869   ,-0.0033391805167947105  ,0.006388475128528773   ,-3.1676430553497203    ,0.0 ,-3.973368943820623    ,-23.19387943808092      ,        0.0 ,        0.0 , 0.0
 0.0 ,0.0 ,           0.0 ,            0.0 ,            0.0 ,            0.0 ,              0.0 ,                   0.0 , 897.0 ,52.73438 ,-40.0     ,           0.0 ,           0.0 ,       0.0 ,-213.2363      ,-18.67637   ,-0.5065659       ,1389.418         ,                 0.0 ,             0.0 ,             0.0 ,                 0.0 ,                 0.0 ,        0.0 ,0.0                    ,            0.0 ,            0.0 ,            0.0 ,              0.0 ,                   0.0 ,  0.0 ,0.0 ,  63.0526890076239   ,-19.13493555082592 ,0.0 ,-150.20647096360102 ,-301.8961131095082  ,-0.9660051654729485     ,-150.84806452398357 ,          0.0 ,          0.0 ,-149.69559048054901 ,-302.40699445125637 ,-150.84806452398357 ,-602.9506491411203  , 87.8937275420447    ,200.98354996185654  ,152.23640201469016   ,-195.62452991762592   ,-347.3141746533202  ,-0.9660051654729485     ,-196.26612436533654 ,          0.0 ,          0.0 ,-195.1136501735405   ,-347.8250543585413  ,-196.26612436533654 ,-739.204823850142   , 87.8937275420447    ,246.4016094143192    ,152.23640201469016   ,-2.1993138581648397e-07 ,-1.3757231431372854e-05 ,-8.025748206091332e-07  ,      0.0 ,      0.0 ,      0.0 ,9.084547298373262e-07   ,-1.488561759416882e-05  ,      0.0 ,-1.397716300294931e-05  ,9.053272662137981e-06  ,0.5732550085034905   ,0.2946648442233249      ,-0.005997995722761869   ,-0.0033391805167947105  ,0.006388475128528773   ,-3.1676430553497203    ,0.0 ,-3.973368943820623    ,-23.19387943808092      ,        0.0 ,        0.0 , 0.0
 0.0 ,0.0 ,           0.0 ,            0.0 ,            0.0 ,            0.0 ,              0.0 ,                   0.0 , 898.0 ,54.6875  ,-40.0     ,           0.0 ,           0.0 ,       0.0 ,-213.2762      ,-18.67237   ,-0.06535611      ,1389.552         ,                 0.0 ,             0.0 ,             0.0 ,                 0.0 ,                 0.0 ,        0.0 ,0.0                    ,            0.0 ,            0.0 ,            0.0 ,              0.0 ,                   0.0 ,  0.0 ,0.0 ,  63.0526890076239   ,-19.13493555082592 ,0.0 ,-150.20647096360102 ,-301.8961131095082  ,-0.9660051654729485     ,-150.84806452398357 ,          0.0 ,          0.0 ,-149.69559048054901 ,-302.40699445125637 ,-150.84806452398357 ,-602.9506491411203  , 87.8937275420447    ,200.98354996185654  ,152.23640201469016   ,-195.62452991762592   ,-347.3141746533202  ,-0.9660051654729485     ,-196.26612436533654 ,          0.0 ,          0.0 ,-195.1136501735405   ,-347.8250543585413  ,-196.26612436533654 ,-739.204823850142   , 87.8937275420447    ,246.4016094143192    ,152.23640201469016   ,-2.1993138581648397e-07 ,-1.3757231431372854e-05 ,-8.025748206091332e-07  ,      0.0 ,      0.0 ,      0.0 ,9.084547298373262e-07   ,-1.488561759416882e-05  ,      0.0 ,-1.397716300294931e-05  ,9.053272662137981e-06  ,0.5732550085034905   ,0.2946648442233249      ,-0.005997995722761869   ,-0.0033391805167947105  ,0.006388475128528773   ,-3.1676430553497203    ,0.0 ,-3.973368943820623    ,-23.19387943808092      ,        0.0 ,        0.0 , 0.0
 0.0 ,0.0 ,           0.0 ,            0.0 ,            0.0 ,            0.0 ,              0.0 ,                   0.0 , 899.0 ,56.64063 ,-40.0     ,           0.0 ,           0.0 ,       0.0 ,-213.3158      ,-18.66842   ,0.7402568        ,1390.424         ,                 0.0 ,             0.0 ,             0.0 ,                 0.0 ,                 0.0 ,        0.0 ,0.0                    ,            0.0 ,            0.0 ,            0.0 ,              0.0 ,                   0.0 ,  0.0 ,0.0 ,  63.0526890076239   ,-19.13493555082592 ,0.0 ,-150.20647096360102 ,-301.8961131095082  ,-0.9660051654729485     ,-150.84806452398357 ,          0.0 ,          0.0 ,-149.69559048054901 ,-302.40699445125637 ,-150.84806452398357 ,-602.9506491411203  , 87.8937275420447    ,200.98354996185654  ,152.23640201469016   ,-195.62452991762592   ,-347.3141746533202  ,-0.9660051654729485     ,-196.26612436533654 ,          0.0 ,          0.0 ,-195.1136501735405   ,-347.8250543585413  ,-196.26612436533654 ,-739.204823850142   , 87.8937275420447    ,246.4016094143192    ,152.23640201469016   ,-2.1993138581648397e-07 ,-1.3757231431372854e-05 ,-8.025748206091332e-07  ,      0.0 ,      0.0 ,      0.0 ,9.084547298373262e-07   ,-1.488561759416882e-05  ,      0.0 ,-1.397716300294931e-05  ,9.053272662137981e-06  ,0.5732550085034905   ,0.2946648442233249      ,-0.005997995722761869   ,-0.0033391805167947105  ,0.006388475128528773   ,-3.1676430553497203    ,0.0 ,-3.973368943820623    ,-23.19387943808092      ,        0.0 ,        0.0 , 0.0
 0.0 ,0.0 ,           0.0 ,            0.0 ,            0.0 ,            0.0 ,              0.0 ,                   0.0 , 900.0 ,58.59375 ,-40.0     ,           0.0 ,           0.0 ,       0.0 ,-213.3549      ,-18.66451   ,1.823713         ,1391.647         ,                 0.0 ,             0.0 ,             0.0 ,                 0.0 ,                 0.0 ,        0.0 ,0.0                    ,            0.0 ,            0.0 ,            0.0 ,              0.0 ,                   0.0 ,  0.0 ,0.0 ,  63.0526890076239   ,-19.13493555082592 ,0.0 ,-150.20647096360102 ,-301.8961131095082  ,-0.9660051654729485     ,-150.84806452398357 ,          0.0 ,          0.0 ,-149.69559048054901 ,-302.40699445125637 ,-150.84806452398357 ,-602.9506491411203  , 87.8937275420447    ,200.98354996185654  ,152.23640201469016   ,-195.62452991762592   ,-347.3141746533202  ,-0.9660051654729485     ,-196.26612436533654 ,          0.0 ,          0.0 ,-195.1136501735405   ,-347.8250543585413  ,-196.26612436533654 ,-739.204823850142   , 87.8937275420447    ,246.4016094143192    ,152.23640201469016   ,-2.1993138581648397e-07 ,-1.3757231431372854e-05 ,-8.025748206091332e-07  ,      0.0 ,      0.0 ,      0.0 ,9.084547298373262e-07   ,-1.488561759416882e-05  ,      0.0 ,-1.397716300294931e-05  ,9.053272662137981e-06  ,0.5732550085034905   ,0.2946648442233249      ,-0.005997995722761869   ,-0.0033391805167947105  ,0.006388475128528773   ,-3.1676430553497203    ,0.0 ,-3.973368943820623    ,-23.19387943808092      ,        0.0 ,        0.0 , 0.0
 0.0 ,0.0 ,           0.0 ,            0.0 ,            0.0 ,            0.0 ,              0.0 ,                   0.0 , 901.0 ,60.54688 ,-40.0     ,           0.0 ,           0.0 ,       0.0 ,-213.3937      ,-18.66063   ,3.719762         ,1393.542         ,                 0.0 ,             0.0 ,             0.0 ,                 0.0 ,                 0.0 ,        0.0 ,0.0                    ,            0.0 ,            0.0 ,            0.0 ,              0.0 ,                   0.0 ,  0.0 ,0.0 ,  63.0526890076239   ,-19.13493555082592 ,0.0 ,-150.20647096360102 ,-301.8961131095082  ,-0.9660051654729485     ,-150.84806452398357 ,          0.0 ,          0.0 ,-149.69559048054901 ,-302.40699445125637 ,-150.84806452398357 ,-602.9506491411203  , 87.8937275420447    ,200.98354996185654  ,152.23640201469016   ,-195.62452991762592   ,-347.3141746533202  ,-0.9660051654729485     ,-196.26612436533654 ,          0.0 ,          0.0 ,-195.1136501735405   ,-347.8250543585413  ,-196.26612436533654 ,-739.204823850142   , 87.8937275420447    ,246.4016094143192    ,152.23640201469016   ,-2.1993138581648397e-07 ,-1.3757231431372854e-05 ,-8.025748206091332e-07  ,      0.0 ,      0.0 ,      0.0 ,9.084547298373262e-07   ,-1.488561759416882e-05  ,      0.0 ,-1.397716300294931e-05  ,9.053272662137981e-06  ,0.5732550085034905   ,0.2946648442233249      ,-0.005997995722761869   ,-0.0033391805167947105  ,0.006388475128528773   ,-3.1676430553497203    ,0.0 ,-3.973368943820623    ,-23.19387943808092      ,        0.0 ,        0.0 , 0.0
 0.0 ,0.0 ,           0.0 ,            0.0 ,            0.0 ,            0.0 ,              0.0 ,                   0.0 , 902.0 ,123.0528 ,-38.1019  ,           0.0 ,           0.0 ,       0.0 ,-191.5496      ,-18.94694   ,-0.001293792     ,4.685355e-05     ,                 0.0 ,             0.0 ,             0.0 ,                 0.0 ,                 0.0 ,        0.0 ,1.9995193470349244     ,            0.0 ,            0.0 ,            0.0 ,              0.0 ,                   0.0 ,  0.0 ,0.0 , 806.8027825997033   ,1.0                ,0.0 ,-246.87631443284758 ,-493.29924933066224 ,-0.009654926867042078   ,-246.68498065362058 ,          0.0 ,          0.0 ,-246.87626456869384 ,-493.29924933066224 ,-246.68498065362058 ,-986.8602944568461  ,142.32765309392192   ,328.95349822159676  ,246.51877664740712   ,-438.3364809467587    ,-684.7594158445734  ,-0.009654926867042078   ,-438.1451471675317  ,          0.0 ,          0.0 ,-438.33638110663753  ,-684.7594158445734  ,-438.1451471675317  ,-1561.2410935189425 ,142.32765309392192   ,520.4137145996616    ,246.51877664740712   ,-4.0619071031954916e-07 ,-5.3573626326866105e-06 ,-2.491660527930925e-06  ,      0.0 ,      0.0 ,      0.0 ,2.824176313012684e-06   ,-8.587728156896654e-06  ,      0.0 ,-5.763551897057514e-06  ,6.0800472795572624e-06 ,0.6444088729433908   ,1.0                     ,0.029084217511297028    ,-0.0007568420485644836  ,0.0                    ,0.02909408219274096    ,0.0 ,-191.4601665139111    ,-191.4601665139111      ,        0.0 ,        0.0 , 0.0
 0.0 ,0.0 ,           0.0 ,            0.0 ,            0.0 ,            0.0 ,              0.0 ,                   0.0 , 903.0 ,123.0529 ,-36.20368 ,           0.0 ,           0.0 ,       0.0 ,-172.5915      ,-18.94453   ,-0.002691883     ,5.281195e-05     ,                 0.0 ,             0.0 ,             0.0 ,                 0.0 ,                 0.0 ,        0.0 ,2.4989687352022916     ,            0.0 ,            0.0 ,            0.0 ,              0.0 ,                   0.0 ,  0.0 ,0.0 , 808.1119662324224   ,1.0                ,0.0 ,-239.028452181742   ,-477.8039210163978  ,-0.010674046739948241   ,-238.94601526528555 ,          0.0 ,          0.0 ,-239.02840210469557 ,-477.8039210163978  ,-238.94601526528555 ,-955.7783883330253  ,137.88101527025339   ,318.5927960944175   ,238.8169371767175    ,-411.70965058615275   ,-650.485169471775   ,-0.010674046739948241   ,-411.62726372066277 ,          0.0 ,          0.0 ,-411.7096006371192   ,-650.485169471775   ,-411.62726372066277 ,-1473.8223335972239 ,137.88101527025339   ,491.27404457587465   ,238.8169371767175    ,2.0486232007199755e-06  ,-6.839069111252107e-06  ,-2.0898786124010043e-07 ,      0.0 ,      0.0 ,      0.0 ,5.017642234739236e-06   ,-9.808088644998632e-06  ,      0.0 ,-4.790446460182348e-06  ,7.610467382481625e-06  ,0.642868113299542    ,1.0                     ,0.03577795957421201     ,-0.0025458917929385024  ,0.0                    ,0.0359225607534483     ,0.0 ,-172.68124845537716   ,-172.68124845537716     ,        0.0 ,        0.0 , 0.0
 0.0 ,0.0 ,           0.0 ,            0.0 ,            0.0 ,            0.0 ,              0.0 ,                   0.0 , 904.0 ,123.0543 ,-34.30509 ,           0.0 ,           0.0 ,       0.0 ,-153.6485      ,-18.94024   ,-0.003350166     ,8.914048e-05     ,                 0.0 ,             0.0 ,             0.0 ,                 0.0 ,                 0.0 ,        0.0 ,0.49997826911851423    ,            0.0 ,            0.0 ,            0.0 ,              0.0 ,                   0.0 ,  0.0 ,0.0 , 809.0823593576587   ,1.0                ,0.0 ,-230.9019452903463  ,-463.59733953577916 ,-0.04110019727809401    ,-231.43379806534884 ,          0.0 ,          0.0 ,-230.90194526313442 ,-463.59733953577916 ,-231.43379806534884 ,-925.9330328620894  ,134.19352257123128   ,308.6443609547542   ,232.4299678622778    ,-384.5073570676489    ,-617.2027513402938  ,-0.04110019727809401    ,-385.0391098970753  ,          0.0 ,          0.0 ,-384.50730703826395  ,-617.2027513402938  ,-385.0391098970753  ,-1386.7489184410776 ,134.19352257123128   ,462.24977275926875   ,232.4299678622778    ,7.593702376889972e-06   ,-1.351211128414051e-05  ,-3.9007832390596554e-07 ,      0.0 ,      0.0 ,      0.0 ,7.5955055175552605e-06  ,-1.3513919419418228e-05 ,      0.0 ,-5.918408907522657e-06  ,1.0692110876626763e-05 ,0.8226594808220252   ,0.515192466010566       ,0.006496491697014212    ,-0.0004256712648031822  ,0.015696859624461833   ,-72.29479918778776     ,0.0 ,-81.30154378694874    ,-81.30154378694874      ,        0.0 ,        0.0 , 0.0
 0.0 ,0.0 ,           0.0 ,            0.0 ,            0.0 ,            0.0 ,              0.0 ,                   0.0 , 905.0 ,123.0547 ,-32.4063  ,           0.0 ,           0.0 ,       0.0 ,-134.7285      ,-18.93344   ,-0.004079258     ,6.998731e-05     ,                 0.0 ,             0.0 ,             0.0 ,                 0.0 ,                 0.0 ,        0.0 ,1.9995918605472496     ,            0.0 ,            0.0 ,            0.0 ,              0.0 ,                   0.0 ,  0.0 ,0.0 , 810.0786940010678   ,1.0                ,0.0 ,-223.6024559156765  ,-447.93503485386304 ,-0.05261518907334712    ,-223.75694752356816 ,          0.0 ,          0.0 ,-223.6024559156765  ,-447.93503485386304 ,-223.75694752356816 ,-895.2944382727007  ,129.4738970163782    ,298.4314627531583   ,224.25538333415165   ,-358.39209500177503   ,-582.7246739399616  ,-0.05261518907334712    ,-358.54658658925973 ,          0.0 ,          0.0 ,-358.392094981368    ,-582.7246739399616  ,-358.54658658925973 ,-1299.6635552536163 ,129.4738970163782    ,433.22110183925685   ,224.25538333415165   ,1.378457475786286e-05   ,-2.5179390860539475e-05 ,-1.0058218073307812e-06 ,      0.0 ,      0.0 ,      0.0 ,1.3793970591903884e-05  ,-2.5188781699984477e-05 ,      0.0 ,-1.1394815603217013e-05 ,1.977466866281211e-05  ,0.6399455672508867   ,0.9998022471377257      ,0.03528921268972025     ,-0.005898936416902161   ,6.4027448045473764e-06 ,0.006449514412233657   ,0.0 ,-134.76014635784753   ,-134.76014635784753     ,        0.0 ,        0.0 , 0.0
 0.0 ,0.0 ,           0.0 ,            0.0 ,            0.0 ,            0.0 ,              0.0 ,                   0.0 , 906.0 ,123.0544 ,-30.50722 ,           0.0 ,           0.0 ,       0.0 ,-115.8407      ,-18.92316   ,-0.00501638      ,7.941708e-05     ,                 0.0 ,             0.0 ,             0.0 ,                 0.0 ,                 0.0 ,        0.0 ,1.5013366092230407     ,            0.0 ,            0.0 ,            0.0 ,              0.0 ,                   0.0 ,  0.0 ,0.0 , 811.0749160322707   ,1.0                ,0.0 ,-216.120850297378   ,-432.0070539964151  ,0.03162726349190248     ,-216.00312394907849 ,          0.0 ,          0.0 ,-216.120850297378   ,-432.0071040271677  ,-216.00312394907849 ,-864.1310282428715  ,124.67606331255925   ,288.0437094004895   ,215.94529204262602   ,-332.3516500986957    ,-548.2378537977328  ,0.03162726349190248     ,-332.2339237503961  ,          0.0 ,          0.0 ,-332.3516500986957   ,-548.2378537977328  ,-332.2339237503961  ,-1212.8234273179974 ,124.67606331255925   ,404.2745092018072    ,215.94529204262602   ,2.7733432899756536e-06  ,-5.1159765036523964e-06 ,9.388545005504583e-07   ,      0.0 ,      0.0 ,      0.0 ,2.801231203535215e-06   ,-5.1438624159818515e-06 ,      0.0 ,-2.34263221306169e-06   ,4.02969844566935e-06   ,0.8196882798563974   ,0.5314459466735981      ,0.00877462998666847     ,-0.0013533874403019897  ,0.03318625375086873    ,-53.804413207412765    ,0.0 ,-62.407916236022004   ,-62.407916236022004     ,        0.0 ,        0.0 , 0.0
 0.0 ,0.0 ,           0.0 ,            0.0 ,            0.0 ,            0.0 ,              0.0 ,                   0.0 , 907.0 ,123.0538 ,-28.60764 ,           0.0 ,           0.0 ,       0.0 ,-97.00053      ,-18.90759   ,-0.006468112     ,3.997711e-05     ,                 0.0 ,             0.0 ,             0.0 ,                 0.0 ,                 0.0 ,        0.0 ,2.9996587682396716     ,            0.0 ,            0.0 ,            0.0 ,              0.0 ,                   0.0 ,  0.0 ,0.0 , 812.0262475305184   ,1.0                ,0.0 ,-208.27355398044858 ,-417.43216450094627 ,-0.008806053097457843   ,-208.41932241458397 ,          0.0 ,          0.0 ,-208.27355398044858 ,-417.432164502804   ,-208.41932241458397 ,-834.1250408959788  ,120.71572133781642   ,278.041663638609    ,209.0858013189275    ,-305.3571096479378    ,-514.5157201684355  ,-0.008806053097457843   ,-305.50287808207315 ,          0.0 ,          0.0 ,-305.3571096479378   ,-514.5157201684355  ,-305.50287808207315 ,-1125.3757579753942 ,120.71572133781642   ,375.12521930609824   ,209.0858013189275    ,2.277930354582373e-05   ,-3.6026973527977935e-05 ,-1.6077615082437674e-06 ,      0.0 ,      0.0 ,      0.0 ,2.2792787494034624e-05  ,-3.604045747611451e-05  ,      0.0 ,-1.3247669982117052e-05 ,2.9673544582447458e-05 ,1.0                  ,0.04259209377320819     ,-0.01298738993424551    ,0.0                     ,0.04496762538958645    ,-97.08354566426269     ,0.0 ,0.0                   ,0.0                     ,        0.0 ,        0.0 , 0.0
 0.0 ,0.0 ,           0.0 ,            0.0 ,            0.0 ,            0.0 ,              0.0 ,                   0.0 , 908.0 ,123.0523 ,-26.70721 ,           0.0 ,           0.0 ,       0.0 ,-78.23882      ,-18.88333   ,-0.008626305     ,6.246885e-05     ,                 0.0 ,             0.0 ,             0.0 ,                 0.0 ,                 0.0 ,        0.0 ,0.00026282086707912766 ,            0.0 ,            0.0 ,            0.0 ,              0.0 ,                   0.0 ,  0.0 ,0.0 , 812.9776086374563   ,1.0                ,0.0 ,-200.65948955423187 ,-401.9785482951504  ,0.07069235520552493     ,-200.74683449631766 ,          0.0 ,          0.0 ,-200.65948955423187 ,-401.9785982797539  ,-200.74683449631766 ,-803.384822339064   ,116.20647995955093   ,267.79494078703215  ,201.27556170671735   ,-278.96572055040826   ,-480.2847792825661  ,0.07069235520552493     ,-279.0530155078907  ,          0.0 ,          0.0 ,-278.9656705570442   ,-480.2847792825661  ,-279.0530155078907  ,-1038.303615345376  ,116.20647995955093   ,346.1011717744479    ,201.27556170671735   ,-1.4505504167484381e-11 ,-5.933980925816785e-10  ,9.536341272923746e-11   ,      0.0 ,      0.0 ,      0.0 ,-1.0604383951864337e-11 ,-5.97299142711734e-10   ,      0.0 ,-6.079035266635983e-10  ,3.4183077699610054e-10 ,1.0                  ,0.05668830270565228     ,-0.017166223004461346   ,0.0                     ,0.05999233541299062    ,-78.30622100018405     ,0.0 ,0.0                   ,0.0                     ,        0.0 ,        0.0 , 0.0
 0.0 ,0.0 ,           0.0 ,            0.0 ,            0.0 ,            0.0 ,              0.0 ,                   0.0 , 909.0 ,123.05   ,-24.8057  ,           0.0 ,           0.0 ,       0.0 ,-59.62267      ,-18.84343   ,-0.0117766       ,2.424612e-05     ,                 0.0 ,             0.0 ,             0.0 ,                 0.0 ,                 0.0 ,        0.0 ,0.0008366330070071482  ,            0.0 ,            0.0 ,            0.0 ,              0.0 ,                   0.0 ,  0.0 ,0.0 , 814.0106294609501   ,1.0                ,0.0 ,-193.15995299271322 ,-386.4245376623415  ,0.09048808184426287     ,-193.04052170417174 ,          0.0 ,          0.0 ,-193.1599023302074  ,-386.4245884221118  ,-193.04052170417174 ,-772.625012401058   ,111.61613315176083   ,257.54167076793124  ,193.3247763500035    ,-252.6726145523582    ,-445.9371992219865  ,0.09048808184426287     ,-252.55313325701616 ,          0.0 ,          0.0 ,-252.67251384122017  ,-445.9371999331245  ,-252.55313325701616 ,-951.1629469895292  ,111.61613315176083   ,317.0543323275763    ,193.3247763500035    ,1.0482517964325431e-08  ,-1.1912959614385974e-08 ,-1.9412035909393843e-09 ,      0.0 ,      0.0 ,      0.0 ,1.0524504391782085e-08  ,-1.1954946041842626e-08 ,      0.0 ,-1.4304433233265556e-09 ,1.1247309295020876e-08 ,0.9998437477842174   ,0.07952205961555667     ,-0.023319885434197052   ,-5.150923533231119e-05  ,0.08310652524363696    ,-59.498116522162036    ,0.0 ,-0.014447162824260975 ,-0.014447162824260975   ,        0.0 ,        0.0 , 0.0
 0.0 ,0.0 ,           0.0 ,            0.0 ,            0.0 ,            0.0 ,              0.0 ,                   0.0 , 910.0 ,123.0477 ,-22.90337 ,           0.0 ,           0.0 ,       0.0 ,-41.31578      ,-18.77179   ,-0.01342882      ,-1.516908e-05    ,                 0.0 ,             0.0 ,             0.0 ,                 0.0 ,                 0.0 ,        0.0 ,0.999161819038218      ,            0.0 ,            0.0 ,            0.0 ,              0.0 ,                   0.0 ,  0.0 ,0.0 , 743.0190663737997   ,0.9999999999999999 ,0.0 ,-184.9282972034008  ,-370.04626000045425 ,-0.2398262904750562     ,-184.91920815706317 ,          0.0 ,          0.0 ,-184.9273978877682  ,-370.047159259914   ,-184.91920815706317 ,-739.8938153190091  ,106.88167383047903   ,246.6312717917274   ,185.1244811893398    ,-226.9478854404112    ,-412.0658482374646  ,-0.2398262904750562     ,-226.93879638025095 ,          0.0 ,          0.0 ,-226.94693615286502  ,-412.0666975250108  ,-226.93879638025095 ,-865.9524801000358  ,106.88167383047903   ,288.6508600287377    ,185.1244811893398    ,1.2518908087075639e-05  ,-1.4227234998794422e-05 ,-2.3183122047561583e-06 ,      0.0 ,      0.0 ,      0.0 ,1.2569051022964072e-05  ,-1.4277377934682855e-05 ,      0.0 ,-1.7083289100424216e-06 ,1.3432271880713045e-05 ,0.8133933913166924   ,0.548939535667968       ,0.05210807965044305     ,-0.061515695461271676   ,0.05024606062415186    ,-24.678826125306013    ,0.0 ,-17.253746106752136   ,-17.253746106752136     ,        0.0 ,        0.0 , 0.0
 0.0 ,0.0 ,           0.0 ,            0.0 ,            0.0 ,            0.0 ,              0.0 ,                   0.0 , 911.0 ,121.0947 ,-22.90603 ,           0.0 ,           0.0 ,       0.0 ,-43.03621      ,-18.60241   ,-0.004655994     ,0.0001378666     ,                 0.0 ,             0.0 ,             0.0 ,                 0.0 ,                 0.0 ,        0.0 ,1.4994130953261018     ,            0.0 ,            0.0 ,            0.0 ,              0.0 ,                   0.0 ,  0.0 ,0.0 , 780.0416713731004   ,1.0                ,0.0 ,-183.42841030655842 ,-368.6498957144796  ,-0.561340200006074      ,-184.09319545440886 ,          0.0 ,          0.0 ,-183.42583580246014 ,-368.6525202184638  ,-184.09319545440886 ,-736.1715264459876  ,106.74865608259648   ,245.39050881540527  ,184.89406695928824   ,-227.51513704176213   ,-412.7365724495693  ,-0.561340200006074      ,-228.17989716026733 ,          0.0 ,          0.0 ,-227.51246253766385  ,-412.73919695378163 ,-228.17989716026733 ,-868.4316316811721  ,106.74865608259648   ,289.47723555060895   ,184.89406695928824   ,1.7541823589136743e-05  ,-2.158880350873569e-05  ,-5.106566945192641e-06  ,      0.0 ,      0.0 ,      0.0 ,1.771724686397584e-05   ,-2.1764226783574786e-05 ,      0.0 ,-4.046981418421716e-06  ,1.977782405711195e-05  ,0.906728463453877    ,0.2831007604797726      ,-0.04095534732723248    ,-0.03074737533606669    ,0.0837709024579468     ,-35.41927024610605     ,0.0 ,-8.623935786136041    ,-8.623935786136041      ,        0.0 ,        0.0 , 0.0
 0.0 ,0.0 ,           0.0 ,            0.0 ,            0.0 ,            0.0 ,              0.0 ,                   0.0 , 912.0 ,119.1392 ,-22.90764 ,           0.0 ,           0.0 ,       0.0 ,-43.98474      ,-18.50917   ,-0.0001734304    ,0.0001622251     ,                 0.0 ,             0.0 ,             0.0 ,                 0.0 ,                 0.0 ,        0.0 ,1.503762113895175      ,            0.0 ,            0.0 ,            0.0 ,              0.0 ,                   0.0 ,  0.0 ,0.0 , 816.8845828899241   ,1.0                ,0.0 ,-183.34106730241487 ,-369.0347230453875  ,-0.6600784838387692     ,-184.00807765249945 ,          0.0 ,          0.0 ,-183.33841993428462 ,-369.0373704135178  ,-184.00807765249945 ,-736.3838680003018  ,107.02061457132075   ,245.46130602715903  ,185.36517024877102   ,-227.28308917588802   ,-412.9766949852036  ,-0.6600784838387692     ,-227.95009952597258 ,          0.0 ,          0.0 ,-227.28039187410067  ,-412.97939228699096 ,-227.95009952597258 ,-868.2099835395461  ,107.02061457132075   ,289.4033279006322    ,185.36517024877102   ,1.4069780950847588e-05  ,-3.977754285604556e-05  ,-1.8101946695460454e-06 ,      0.0 ,      0.0 ,      0.0 ,1.4260821156403119e-05  ,-3.9968584569492104e-05 ,      0.0 ,-2.5707763411762126e-05 ,2.8573589876016003e-05 ,0.8163259804220399   ,0.5176228620047688      ,-0.061014890850193626   ,-0.021521602772771486   ,0.06728356812212061    ,-18.059130291990304    ,0.0 ,-25.861056196218556   ,-25.861056196218556     ,        0.0 ,        0.0 , 0.0
 0.0 ,0.0 ,           0.0 ,            0.0 ,            0.0 ,            0.0 ,              0.0 ,                   0.0 , 913.0 ,117.1848 ,-22.91062 ,           0.0 ,           0.0 ,       0.0 ,-44.36566      ,-18.47406   ,0.001277446      ,0.0001404178     ,                 0.0 ,             0.0 ,             0.0 ,                 0.0 ,                 0.0 ,        0.0 ,2.998235247929993      ,            0.0 ,            0.0 ,            0.0 ,              0.0 ,                   0.0 ,  0.0 ,0.0 , 817.8900620781408   ,1.0                ,0.0 ,-183.38927225474774 ,-368.68278831528517 ,-0.6463281888253847     ,-183.85179929302845 ,          0.0 ,          0.0 ,-183.3865747880361  ,-368.6854857819968  ,-183.85179929302845 ,-735.9238597528288  ,106.84836675413709   ,245.30795322886206  ,185.06682295379102   ,-227.43728886794435   ,-412.7308049284817  ,-0.6463281888253847     ,-227.89981590622503 ,          0.0 ,          0.0 ,-227.4345914012327   ,-412.73350239519334 ,-227.89981590622503 ,-868.0679095924185  ,106.84836675413709   ,289.3559698420586    ,185.06682295379102   ,8.105155839207418e-06   ,-4.105542777981194e-05  ,3.5137763309739643e-06  ,      0.0 ,      0.0 ,      0.0 ,8.65113183011996e-06    ,-4.160140825914749e-05  ,      0.0 ,-3.295027543894846e-05  ,2.6881561651606617e-05 ,0.8159973119866226   ,0.4971107362556241      ,-0.0323116527499705     ,-0.027776775775554284   ,0.03137234568208326    ,-17.023365900000677    ,0.0 ,-26.996855446575665   ,-26.996855446575665     ,        0.0 ,        0.0 , 0.0
 0.0 ,0.0 ,           0.0 ,            0.0 ,            0.0 ,            0.0 ,              0.0 ,                   0.0 , 914.0 ,115.2285 ,-22.91389 ,           0.0 ,           0.0 ,       0.0 ,-44.45177      ,-18.46871   ,0.001273184      ,0.0001085299     ,                 0.0 ,             0.0 ,             0.0 ,                 0.0 ,                 0.0 ,        0.0 ,3.0012369681771687     ,            0.0 ,            0.0 ,            0.0 ,              0.0 ,                   0.0 ,  0.0 ,0.0 , 819.0018644646957   ,1.0                ,0.0 ,-183.54341715317452 ,-368.8639427822946  ,-0.6738615231033744     ,-183.99521909694573 ,          0.0 ,          0.0 ,-183.5406178358258  ,-368.8667420996433  ,-183.99521909694573 ,-736.4025789873448  ,106.86717161878074   ,245.46750969057607  ,185.09937406816076   ,-227.39350417123617   ,-412.7140298454262  ,-0.6738615231033744     ,-227.84530611500742 ,          0.0 ,          0.0 ,-227.39070485388748  ,-412.71682911770495 ,-227.84530611500742 ,-867.9528400415298  ,106.86717161878074   ,289.31759675370773   ,185.09937406816076   ,5.3672384551080936e-06  ,-4.675883220654877e-05  ,3.0655034142160663e-06  ,      0.0 ,      0.0 ,      0.0 ,5.835705365284029e-06   ,-4.722729711312894e-05  ,      0.0 ,-4.139159425104755e-05  ,2.918220519652352e-05  ,0.8160241150488773   ,0.49131101168607944     ,-0.01540729083188976    ,-0.02777272962460734    ,0.01639775283171538    ,-16.829372915316114    ,0.0 ,-26.992922904040412   ,-26.992922904040412     ,        0.0 ,        0.0 , 0.0
 0.0 ,0.0 ,           0.0 ,            0.0 ,            0.0 ,            0.0 ,              0.0 ,                   0.0 , 915.0 ,113.27   ,-22.91784 ,           0.0 ,           0.0 ,       0.0 ,-44.40915      ,-18.47693   ,0.0009184465     ,0.0001141354     ,                 0.0 ,             0.0 ,             0.0 ,                 0.0 ,                 0.0 ,        0.0 ,2.244132079618388      ,            0.0 ,            0.0 ,            0.0 ,              0.0 ,                   0.0 ,  0.0 ,0.0 , 816.0134219502208   ,1.0                ,0.0 ,-183.7567000117273  ,-368.9703321074487  ,-0.6380609524474208     ,-184.09769943490494 ,          0.0 ,          0.0 ,-183.75409860854026 ,-368.97288331645575 ,-184.09769943490494 ,-736.8247065498291  ,106.83731871246107   ,245.60821878521634  ,185.04769671322867   ,-227.28677532345588   ,-412.50043242342923 ,-0.6380609524474208     ,-227.62777474663352 ,          0.0 ,          0.0 ,-227.28417392026884  ,-412.5029586281844  ,-227.62777474663352 ,-867.4149324850148  ,106.83731871246107   ,289.1383191011969    ,185.04769671322867   ,3.602149902355043e-07   ,-4.7498257376022416e-05 ,5.617987178585261e-06   ,      0.0 ,      0.0 ,      0.0 ,1.1111679408883904e-06  ,-4.824920758279835e-05  ,      0.0 ,-4.7138042133887635e-05 ,2.866172818676301e-05  ,0.8121904442980217   ,0.49992789000624666     ,-0.027252858722639953   ,-0.007473306058915179   ,0.021621120024566974   ,-27.025653857692554    ,0.0 ,-16.49435969831112    ,-16.49435969831112      ,        0.0 ,        0.0 , 0.0
 0.0 ,0.0 ,           0.0 ,            0.0 ,            0.0 ,            0.0 ,              0.0 ,                   0.0 , 916.0 ,111.3084 ,-22.92307 ,           0.0 ,           0.0 ,       0.0 ,-44.32673      ,-18.4904    ,0.0008137076     ,9.095114e-05     ,                 0.0 ,             0.0 ,             0.0 ,                 0.0 ,                 0.0 ,        0.0 ,1.4995240898263287     ,            0.0 ,            0.0 ,            0.0 ,              0.0 ,                   0.0 ,  0.0 ,0.0 , 820.806398007401    ,1.0                ,0.0 ,-183.98952329344297 ,-368.98734697047405 ,-0.858152137637832      ,-184.08924064010557 ,          0.0 ,          0.0 ,-183.98492860556513 ,-368.99189169822307 ,-184.08924064010557 ,-737.0661109040227  ,106.78370628505803   ,245.688670359649    ,184.95488187280793   ,-227.24456400840404   ,-412.2423378204883  ,-0.858152137637832      ,-227.34428126760446 ,          0.0 ,          0.0 ,-227.2399193681172   ,-412.24693232572196 ,-227.34428126760446 ,-866.8311331440879  ,106.78370628505803   ,288.94371098714794   ,184.95488187280793   ,-4.112734513030287e-06  ,-4.475498642433171e-05  ,2.567657971496412e-06   ,      0.0 ,      0.0 ,      0.0 ,-3.844984327010495e-06  ,-4.5022730620203935e-05 ,      0.0 ,-4.8867718943561536e-05 ,2.496781572018299e-05  ,0.6272784897601351   ,1.0                     ,-0.01283562307153714    ,-0.01740131326060557    ,0.0                    ,0.021716357626262527   ,0.0 ,-43.255010726023244   ,-43.255010726023244     ,        0.0 ,        0.0 , 0.0
 0.0 ,0.0 ,           0.0 ,            0.0 ,            0.0 ,            0.0 ,              0.0 ,                   0.0 , 917.0 ,109.3424 ,-22.93035 ,           0.0 ,           0.0 ,       0.0 ,-44.2515       ,-18.5052    ,0.0009487006     ,0.0001049989     ,                 0.0 ,             0.0 ,             0.0 ,                 0.0 ,                 0.0 ,        0.0 ,1.503256318189366      ,            0.0 ,            0.0 ,            0.0 ,              0.0 ,                   0.0 ,  0.0 ,0.0 , 822.0636141461393   ,1.0                ,0.0 ,-183.977941673596   ,-368.9635089571742  ,-0.9871371950859944     ,-184.07774496635275 ,          0.0 ,          0.0 ,-183.97247871711323 ,-368.96897191365696 ,-184.07774496635275 ,-737.0191955971229  ,106.77739126649381   ,245.67304861238028  ,184.94393570178408   ,-227.09645873915244   ,-412.0819762627485  ,-0.9871371950859944     ,-227.196262314734   ,          0.0 ,          0.0 ,-227.09094602268755  ,-412.0874889792134  ,-227.196262314734   ,-866.3746478394777  ,106.77739126649381   ,288.79156596076155   ,184.94393570178408   ,-4.448490991386051e-06  ,-4.276026132926271e-05  ,2.693012850024356e-06   ,      0.0 ,      0.0 ,      0.0 ,-4.14498143064266e-06   ,-4.3063767909248766e-05 ,      0.0 ,-4.7208751326346494e-05 ,2.3763771606302035e-05 ,0.6283328238333517   ,0.9971246235028183      ,-0.010570982916578197   ,-0.01325309149156427    ,8.307083377535335e-05  ,-0.14165095315673573   ,0.0 ,-42.959667386268066   ,-42.959667386268066     ,        0.0 ,        0.0 , 0.0
 0.0 ,0.0 ,           0.0 ,            0.0 ,            0.0 ,            0.0 ,              0.0 ,                   0.0 , 918.0 ,107.3707 ,-22.94108 ,           0.0 ,           0.0 ,       0.0 ,-44.21495      ,-18.51959   ,0.001023334      ,9.206364e-05     ,                 0.0 ,             0.0 ,             0.0 ,                 0.0 ,                 0.0 ,        0.0 ,2.4923065816865146     ,            0.0 ,            0.0 ,            0.0 ,              0.0 ,                   0.0 ,  0.0 ,0.0 , 823.1213831205437   ,1.0                ,0.0 ,-183.3130535547573  ,-366.898080936533   ,-1.3336224170629318     ,-183.51067201874795 ,          0.0 ,          0.0 ,-183.30331668758166 ,-366.9078182296205  ,-183.51067201874795 ,-733.72175659252    ,105.94435302505978   ,244.5739023669711   ,183.50102263320957   ,-228.53054083815127   ,-412.1155183024087  ,-1.3336224170629318     ,-228.7281586152818  ,          0.0 ,          0.0 ,-228.5208039709756   ,-412.1253050871027  ,-228.7281586152818  ,-869.3742674124117  ,105.94435302505978   ,289.7914388810233    ,183.50102263320957   ,-2.4123088982352156e-06 ,-1.793764609316973e-05  ,-2.4188815331485273e-06 ,      0.0 ,      0.0 ,      0.0 ,-9.287861139886949e-07  ,-1.9421167195454854e-05 ,      0.0 ,-2.034995134255664e-05  ,1.1173251359233528e-05 ,1.0                  ,-0.014671795047852827   ,-0.01603812955309951    ,0.0                     ,0.022145524775410878   ,-45.217501974306906    ,0.0 ,0.0                   ,0.0                     ,        0.0 ,        0.0 , 0.0
 0.0 ,0.0 ,           0.0 ,            0.0 ,            0.0 ,            0.0 ,              0.0 ,                   0.0 , 919.0 ,105.3913 ,-22.95776 ,           0.0 ,           0.0 ,       0.0 ,-44.24921      ,-18.53284   ,0.001018232      ,7.098615e-05     ,                 0.0 ,             0.0 ,             0.0 ,                 0.0 ,                 0.0 ,        0.0 ,1.5110028209750475     ,            0.0 ,            0.0 ,            0.0 ,              0.0 ,                   0.0 ,  0.0 ,0.0 , 824.2186231398787   ,1.0                ,0.0 ,-184.00323404085225 ,-368.75836684053434 ,-1.3583271126235579     ,-183.9984699157755  ,          0.0 ,          0.0 ,-183.99312202974585 ,-368.7685283762793  ,-183.9984699157755  ,-736.7600203218007  ,106.67860178377569   ,245.5866897405062   ,184.77270841567912   ,-227.03533672524668   ,-411.79046952492877 ,-1.3583271126235579     ,-227.0305230755314  ,          0.0 ,          0.0 ,-227.02522471414022  ,-411.8005815360352  ,-227.0305230755314  ,-865.8563293257068  ,106.67860178377569   ,288.6187435251827    ,184.77270841567912   ,-4.859671767997882e-06  ,-4.07486808573284e-05   ,5.5642555380064016e-06  ,      0.0 ,      0.0 ,      0.0 ,-4.629733202480882e-06  ,-4.0978617424944816e-05 ,      0.0 ,-4.560835808156074e-05  ,2.2443275984232777e-05 ,0.8123857719857379   ,0.4956975939992389      ,-0.008114540155383937   ,-0.002781745329556789   ,0.004028269556322654   ,-25.997955661936963    ,0.0 ,-17.028227657549238   ,-17.028227657549238     ,        0.0 ,        0.0 , 0.0
 0.0 ,0.0 ,           0.0 ,            0.0 ,            0.0 ,            0.0 ,              0.0 ,                   0.0 , 920.0 ,103.4011 ,-22.98464 ,           0.0 ,           0.0 ,       0.0 ,-44.39878      ,-18.54477   ,0.0006501664     ,5.347497e-06     ,                 0.0 ,             0.0 ,             0.0 ,                 0.0 ,                 0.0 ,        0.0 ,2.9726421936772724     ,            0.0 ,            0.0 ,            0.0 ,              0.0 ,                   0.0 ,  0.0 ,0.0 , 825.3763711399414   ,1.0                ,0.0 ,-183.05978663820537 ,-365.91182366705175 ,-1.9130452742662305     ,-183.22784533714542 ,          0.0 ,          0.0 ,-183.03971624342154 ,-365.9318443204637  ,-183.22784533714542 ,-732.1993565543295  ,105.53860114898768   ,244.0664360398517   ,182.79819093931138   ,-229.36285940821168   ,-412.21494617842995 ,-1.9130452742662305     ,-229.53096784852366 ,          0.0 ,          0.0 ,-229.34283875479977  ,-412.2349668318419  ,-229.53096784852366 ,-871.1087734351654  ,105.53860114898768   ,290.36960789793113   ,182.79819093931138   ,-1.147534555579707e-06  ,-6.062277946692469e-06  ,-7.440758003617595e-07  ,      0.0 ,      0.0 ,      0.0 ,-8.130066378559505e-07  ,-6.396806312483244e-06  ,      0.0 ,-7.209812900992493e-06  ,3.4876572767841773e-06 ,1.0                  ,-0.013439606879033271   ,-0.009447752560132045   ,0.0                     ,0.016609882456902564   ,-46.30312718472882     ,0.0 ,0.0                   ,0.0                     ,        0.0 ,        0.0 , 0.0
 0.0 ,0.0 ,           0.0 ,            0.0 ,            0.0 ,            0.0 ,              0.0 ,                   0.0 , 921.0 ,101.3963 ,-23.02777 ,           0.0 ,           0.0 ,       0.0 ,-44.72385      ,-18.55538   ,2.1057e-05       ,-3.882215e-05    ,                 0.0 ,             0.0 ,             0.0 ,                 0.0 ,                 0.0 ,        0.0 ,1.0045313212773326     ,            0.0 ,            0.0 ,            0.0 ,              0.0 ,                   0.0 ,  0.0 ,0.0 , 826.618334312881    ,1.0                ,0.0 ,-183.53651966119241 ,-367.88668705354866 ,-2.283547423532954      ,-183.7172029280593  ,          0.0 ,          0.0 ,-183.50820023387826 ,-367.9150560546108  ,-183.7172029280593  ,-735.1404579109119  ,106.40710289422285   ,245.046836112388    ,184.30252616923121   ,-227.97737514868322   ,-412.32754123540326 ,-2.283547423532954      ,-228.15805841555016 ,          0.0 ,          0.0 ,-227.94905572136906  ,-412.3559102364653  ,-228.15805841555016 ,-868.4630243733845  ,106.40710289422285   ,289.4876915998789    ,184.30252616923121   ,-1.7021012698859135e-06 ,-1.7161490334475636e-05 ,1.786060936619109e-06   ,      0.0 ,      0.0 ,      0.0 ,-1.6506750204603014e-06 ,-1.721291449650043e-05  ,      0.0 ,-1.8863591056398624e-05 ,9.497424874783377e-06  ,1.0                  ,-0.005818696621700299   ,-0.004839012410847616   ,0.0                     ,0.007993221239974674   ,-44.44084031430201     ,0.0 ,0.0                   ,0.0                     ,        0.0 ,        0.0 , 0.0
 0.0 ,0.0 ,           0.0 ,            0.0 ,            0.0 ,            0.0 ,              0.0 ,                   0.0 , 922.0 ,99.37175 ,-23.09337 ,           0.0 ,           0.0 ,       0.0 ,-45.28549      ,-18.56482   ,1.796269e-05     ,-3.780074e-05    ,                 0.0 ,             0.0 ,             0.0 ,                 0.0 ,                 0.0 ,        0.0 ,1.4934687118676184     ,            0.0 ,            0.0 ,            0.0 ,              0.0 ,                   0.0 ,  0.0 ,0.0 , 827.9454092432838   ,1.0                ,0.0 ,-183.9904810007162  ,-368.85386349310795 ,-2.6527407954178432     ,-183.97296943123507 ,          0.0 ,          0.0 ,-183.95235548043453 ,-368.8919908100225  ,-183.97296943123507 ,-736.8173144154343  ,106.76894591119637   ,245.6057719072307   ,184.9293292525041    ,-227.96000189293545   ,-412.8233848757024  ,-2.6527407954178432     ,-227.9425396703255  ,          0.0 ,          0.0 ,-227.92192571952495  ,-412.8614628457457  ,-227.9425396703255  ,-868.7259264389634  ,106.76894591119637   ,289.57534214632113   ,184.9293292525041    ,-3.122461330716221e-06  ,-4.1277313786381635e-05 ,4.481970629534178e-06   ,      0.0 ,      0.0 ,      0.0 ,-2.9907364658361664e-06 ,-4.140903335216752e-05  ,      0.0 ,-4.4399768811451255e-05 ,2.309297683735458e-05  ,0.8082131174694553   ,0.5096517943731544      ,-0.004343766246430719   ,-0.0010586557047012452  ,0.0020772878239005677  ,-25.96752916445528     ,0.0 ,-17.998551075552143   ,-17.998551075552143     ,        0.0 ,        0.0 , 0.0
 0.0 ,0.0 ,           0.0 ,            0.0 ,            0.0 ,            0.0 ,              0.0 ,                   0.0 , 923.0 ,97.32169 ,-23.18207 ,           0.0 ,           0.0 ,       0.0 ,-46.08837      ,-18.57324   ,0.001973053      ,0.0001591326     ,                 0.0 ,             0.0 ,             0.0 ,                 0.0 ,                 0.0 ,        0.0 ,1.467878827450603      ,            0.0 ,            0.0 ,            0.0 ,              0.0 ,                   0.0 ,  0.0 ,0.0 , 829.2904695985856   ,1.0                ,0.0 ,-183.74762489619715 ,-368.5856860246836  ,-3.10278882549627       ,-183.79917515867078 ,          0.0 ,          0.0 ,-183.69545495852188 ,-368.6379068548045  ,-183.79917515867078 ,-736.1324369719972  ,106.7466330543069    ,245.37751077755138  ,184.89065571423757   ,-228.54899760451482   ,-413.3870096254469  ,-3.10278882549627       ,-228.60054554731687 ,          0.0 ,          0.0 ,-228.49677623961367  ,-413.4392795631222  ,-228.60054554731687 ,-870.5365527772785  ,106.7466330543069    ,290.17888348586905   ,184.89065571423757   ,-2.3358871974145155e-06 ,-4.0623358349067685e-05 ,3.867024393030355e-06   ,      0.0 ,      0.0 ,      0.0 ,-2.2383818390494696e-06 ,-4.0720862207467094e-05 ,      0.0 ,-4.295924601081874e-05  ,2.2891588573771516e-05 ,0.8116961691503529   ,0.5060711243547069      ,-0.0023918535895307985  ,-0.0008513551669726088  ,0.002948074298834249   ,-17.102681875539176    ,0.0 ,-27.69681729068195    ,-27.69681729068195      ,        0.0 ,        0.0 , 0.0
 0.0 ,0.0 ,           0.0 ,            0.0 ,            0.0 ,            0.0 ,              0.0 ,                   0.0 , 924.0 ,95.24154 ,-23.27644 ,           0.0 ,           0.0 ,       0.0 ,-46.9569       ,-18.58075   ,0.005953114      ,2.050956e-05     ,                 0.0 ,             0.0 ,             0.0 ,                 0.0 ,                 0.0 ,        0.0 ,1.084504565446832      ,            0.0 ,            0.0 ,            0.0 ,              0.0 ,                   0.0 ,  0.0 ,0.0 , 830.3350727859706   ,1.0                ,0.0 ,-182.66349114017555 ,-366.60431153888067 ,-3.578466351947599      ,-182.9810873107033  ,          0.0 ,          0.0 ,-182.5927043294273  ,-366.6751957759809  ,-182.9810873107033  ,-732.2489390676917  ,106.16818950170031   ,244.08297993240137  ,183.8886891243664    ,-229.2684802301639    ,-413.20925155093687 ,-3.578466351947599      ,-229.5859789743397  ,          0.0 ,          0.0 ,-229.19759599306371  ,-413.280135788037   ,-229.5859789743397  ,-872.0637107554405  ,106.16818950170031   ,290.6879199444576    ,183.8886891243664    ,-9.447052599521164e-07  ,-1.843445177493842e-05  ,1.6847126627152521e-06  ,      0.0 ,      0.0 ,      0.0 ,-8.980491734414717e-07  ,-1.8481107835712583e-05 ,      0.0 ,-1.9379158145131585e-05 ,1.0420517500721363e-05 ,0.8115218881582738   ,0.5066416421965709      ,-0.002064563448510424   ,-0.0015017695102507902  ,0.002633236207171759   ,-17.22921023321162     ,0.0 ,-29.373550601650372   ,-29.373550601650372     ,        0.0 ,        0.0 , 0.0
 0.0 ,0.0 ,           0.0 ,            0.0 ,            0.0 ,            0.0 ,              0.0 ,                   0.0 , 925.0 ,93.12939 ,-23.33887 ,           0.0 ,           0.0 ,       0.0 ,-47.51367      ,-18.5875    ,0.01638599       ,0.0005949014     ,                 0.0 ,             0.0 ,             0.0 ,                 0.0 ,                 0.0 ,        0.0 ,2.4206880840805836     ,            0.0 ,            0.0 ,            0.0 ,              0.0 ,                   0.0 ,  0.0 ,0.0 , 830.6881435503124   ,0.9999999999999999 ,0.0 ,-181.92447812780665 ,-365.31538711479755 ,-3.864548845306482      ,-182.00216860087687 ,          0.0 ,          0.0 ,-181.83566107613228 ,-365.4042041664719  ,-182.00216860087687 ,-729.242083375309   ,105.93533126655183   ,243.0806944584363   ,183.48541129178236   ,-227.57148438641252   ,-410.9623957073303  ,-3.864548845306482      ,-227.64917485948274 ,          0.0 ,          0.0 ,-227.48266966866507  ,-411.0512104250778  ,-227.64917485948274 ,-866.1830549532256  ,105.93533126655183   ,288.7277007170422    ,183.48541129178236   ,-1.9956116132123474e-06 ,-4.921825308889503e-05  ,7.847060925484315e-07   ,      0.0 ,      0.0 ,      0.0 ,-1.954516355009912e-06  ,-4.925934390320878e-05  ,      0.0 ,-5.121386611818308e-05  ,2.7894736543651496e-05 ,0.6368898440027351   ,0.9766010948157984      ,-0.002930014445535584   ,-0.0007608830294803967  ,7.239033766199307e-05  ,-1.3860137550395057    ,0.0 ,-44.25797303331295    ,-44.25797303331295      ,        0.0 ,        0.0 , 0.0
 0.0 ,0.0 ,           0.0 ,            0.0 ,            0.0 ,            0.0 ,              0.0 ,                   0.0 , 926.0 ,91.00161 ,-23.36001 ,           0.0 ,           0.0 ,       0.0 ,-47.66394      ,-18.59362   ,0.05236738       ,0.0001131241     ,                 0.0 ,             0.0 ,             0.0 ,                 0.0 ,                 0.0 ,        0.0 ,0.5168554421680442     ,            0.0 ,            0.0 ,            0.0 ,              0.0 ,                   0.0 ,  0.0 ,0.0 , 831.3448428829475   ,1.0                ,0.0 ,-178.88707221266682 ,-358.13550511259956 ,-3.960220124540429      ,-178.6583173611434  ,          0.0 ,          0.0 ,-178.77764828445777 ,-358.2449309557146  ,-178.6583173611434  ,-715.6808946864097  ,103.65009361474496   ,238.56031545731798  ,179.52720165398483   ,-225.4827461155418    ,-404.73117947419826 ,-3.960220124540429      ,-225.2539912640184  ,          0.0 ,          0.0 ,-225.37337050178857  ,-404.84055508795154 ,-225.2539912640184  ,-855.4679168537584  ,103.65009361474496   ,285.1559395895548    ,179.52720165398483   ,-1.409817181706952e-06  ,-2.6256756270474495e-05 ,1.6954471707952294e-06  ,      0.0 ,      0.0 ,      0.0 ,-1.3805076318790627e-06 ,-2.6286065858600507e-05 ,      0.0 ,-2.7666572418470563e-05 ,1.4794170571654848e-05 ,0.8129198358600169   ,0.4964246429747272      ,-0.0021776589240798624  ,-0.00020116739487480783 ,0.0015466398863738767  ,-29.8470177536575      ,0.0 ,-16.74729714688519    ,-16.74729714688519      ,        0.0 ,        0.0 , 0.0
 0.0 ,0.0 ,           0.0 ,            0.0 ,            0.0 ,            0.0 ,              0.0 ,                   0.0 , 927.0 ,88.912   ,-23.30037 ,           0.0 ,           0.0 ,       0.0 ,-47.01268      ,-18.59911   ,0.1471259        ,0.008339136      ,                 0.0 ,             0.0 ,             0.0 ,                 0.0 ,                 0.0 ,        0.0 ,2.0000248576272104     ,            0.0 ,            0.0 ,            0.0 ,              0.0 ,                   0.0 ,  0.0 ,0.0 , 831.6122223639129   ,1.0                ,0.0 ,-174.73685479450637 ,-344.7000810373665  ,-2.729175776411833      ,-172.9628972651326  ,          0.0 ,          0.0 ,-174.5827413739972  ,-344.85419389595114 ,-172.9628972651326  ,-692.3998325375667  , 98.77893362969344   ,230.79996056572188  ,171.09016157150262   ,-221.2874990271623    ,-391.2507749890602  ,-2.729175776411833      ,-219.51359121931202 ,          0.0 ,          0.0 ,-221.13343532817663  ,-391.4048381286071  ,-219.51359121931202 ,-832.0518646760958  , 98.77893362969344   ,277.35060479837784   ,171.09016157150262   ,-3.845238456836748e-06  ,-3.151280327425505e-05  ,3.5630499601990544e-06  ,      0.0 ,      0.0 ,      0.0 ,-3.4661466187227292e-06 ,-3.189189856485405e-05  ,      0.0 ,-3.5358041747924666e-05 ,1.7510489039581563e-05 ,0.8080945592869657   ,0.4959668764787539      ,-0.0035872409467250974  ,-0.0004200274922076191  ,0.0012711753760138531  ,-28.699087762450603    ,0.0 ,-17.848207129187887   ,-17.848207129187887     ,        0.0 ,        0.0 , 0.0
 0.0 ,0.0 ,           0.0 ,            0.0 ,            0.0 ,            0.0 ,              0.0 ,                   0.0 , 928.0 ,87.01648 ,-23.00451 ,           0.0 ,           0.0 ,       0.0 ,-44.00905      ,-18.60361   ,0.2192515        ,-0.01984524      ,                 0.0 ,             0.0 ,             0.0 ,                 0.0 ,                 0.0 ,        0.0 ,2.421065840760601      ,            0.0 ,            0.0 ,            0.0 ,              0.0 ,                   0.0 ,  0.0 ,0.0 , 767.0067809939119   ,1.0                ,0.0 ,-167.21836796246174 ,-324.2166855294862  ,20.399923056338235      ,-163.01019161993295 ,          0.0 ,          0.0 ,-161.97352789525038 ,-329.46143262410726 ,-163.01019161993295 ,-654.4451942458746  , 96.4049094975839    ,218.14838229785775  ,166.97818955616083   ,-211.28488267239604   ,-368.28320375312535 ,20.399923056338235      ,-207.07675195015617 ,          0.0 ,          0.0 ,-206.0400882254736   ,-373.5279473340415  ,-207.07675195015617 ,-786.6447875096712  , 96.4049094975839    ,262.21489700779205   ,166.97818955616083   ,-2.5019968301917023e-06 ,-2.729241245743204e-05  ,1.4729107695446298e-05  ,      0.0 ,      0.0 ,      0.0 ,-3.624542521785414e-07  ,-2.9431954843433433e-05 ,      0.0 ,-2.9794411655735612e-05 ,1.6951557456674555e-05 ,0.8239237048086655   ,0.4540818782219747      ,-0.003293399360940345   ,-0.00038538190700396094 ,0.002132902550610005   ,-27.687423408518914    ,0.0 ,-16.376014017311384   ,-16.376014017311384     ,        0.0 ,        0.0 , 0.0
 0.0 ,0.0 ,           0.0 ,            0.0 ,            0.0 ,            0.0 ,              0.0 ,                   0.0 , 929.0 ,85.84929 ,-24.89109 ,           0.0 ,           0.0 ,       0.0 ,-62.83097      ,-18.608     ,-0.2887458       ,-0.01347916      ,                 0.0 ,             0.0 ,             0.0 ,                 0.0 ,                 0.0 ,        0.0 ,1.535635975561412      ,            0.0 ,            0.0 ,            0.0 ,              0.0 ,                   0.0 ,  0.0 ,0.0 , 828.9023277069887   ,1.0                ,0.0 ,-184.74847621883737 ,-344.5890311347517  ,30.412378510162554      ,-174.72803118367113 ,          0.0 ,          0.0 ,-178.23249707235715 ,-351.1049585858225  ,-174.72803118367113 ,-704.0654849736626  ,100.88786564057477   ,234.68847775941774  ,174.74290051913525   ,-246.22733069636337   ,-406.06788748046586 ,30.412378510162554      ,-236.20688566119713 ,          0.0 ,          0.0 ,-239.71135154988315  ,-412.58381306334854 ,-236.20688566119713 ,-888.5020948426431  ,100.88786564057477   ,296.1673322369437    ,174.74290051913525   ,-3.1147245927079877e-06 ,-4.2063549124318425e-05 ,1.90012387111564e-05    ,      0.0 ,      0.0 ,      0.0 ,-6.955487056222079e-07  ,-4.4482724153316656e-05 ,      0.0 ,-4.517827840634558e-05  ,2.5522943970011892e-05 ,0.8286214890860298   ,0.44349381815276867     ,-0.0012437698747758037  ,-0.00014658387626395806 ,0.0022000104318103254  ,-28.110895469116027    ,0.0 ,-33.36693400953165    ,-33.36693400953165      ,        0.0 ,        0.0 , 0.0
 0.0 ,0.0 ,           0.0 ,            0.0 ,            0.0 ,            0.0 ,              0.0 ,                   0.0 , 930.0 ,84.2333  ,-26.50738 ,           0.0 ,           0.0 ,       0.0 ,-78.94696      ,-18.61268   ,-0.5102643       ,0.0001152573     ,                 0.0 ,             0.0 ,             0.0 ,                 0.0 ,                 0.0 ,        0.0 ,1.81425220006092       ,            0.0 ,            0.0 ,            0.0 ,              0.0 ,                   0.0 ,  0.0 ,0.0 , 845.1853456722997   ,1.0                ,0.0 ,-203.64408685327925 ,-412.5716532387112  ,31.729383112824877      ,-206.27356999211185 ,          0.0 ,          0.0 ,-198.90272408260267 ,-417.312969172864   ,-206.27356999211185 ,-822.4892632475785  ,124.0751584230527    ,274.1630891100625   ,214.90452582778067   ,-281.6192784097062    ,-490.5468447951381  ,31.729383112824877      ,-284.2487615485388  ,          0.0 ,          0.0 ,-276.8779583929442   ,-495.28816072929095 ,-284.2487615485388  ,-1056.4147037342404 ,124.0751584230527    ,352.1383234204041    ,214.90452582778067   ,1.4445607533814168e-06  ,-3.044096521327667e-05  ,1.0726346613522727e-05  ,      0.0 ,      0.0 ,      0.0 ,2.322500473324034e-06   ,-3.1318904922062604e-05 ,      0.0 ,-2.8996403050868835e-05 ,1.881688720342313e-05  ,0.9599720292526661   ,0.1020748208243567      ,-0.0006807471650369218  ,-3.423681930618422e-05  ,0.0020832514807447833  ,-70.18162776959744     ,0.0 ,-7.793337982334384    ,-7.793337982334384      ,        0.0 ,        0.0 , 0.0
 0.0 ,0.0 ,           0.0 ,            0.0 ,            0.0 ,            0.0 ,              0.0 ,                   0.0 , 931.0 ,81.93931 ,-27.24913 ,           0.0 ,           0.0 ,       0.0 ,-86.31355      ,-18.61777   ,-0.319187        ,0.04900794       ,                 0.0 ,             0.0 ,             0.0 ,                 0.0 ,                 0.0 ,        0.0 ,1.933693824874363      ,            0.0 ,            0.0 ,            0.0 ,              0.0 ,                   0.0 ,  0.0 ,0.0 , 836.4579142869088   ,1.0                ,0.0 ,-218.29846916440266 ,-462.7882117979192  ,16.164574339734358      ,-229.51878599359003 ,          0.0 ,          0.0 ,-217.14368014330776 ,-463.94303937798895 ,-229.51878599359003 ,-910.6055055148868  ,139.06162004165355   ,303.53517047247345  ,240.86178486808552   ,-304.14949012868203   ,-548.6392327621986  ,16.164574339734358      ,-315.36980695786946 ,          0.0 ,          0.0 ,-302.99470110758716  ,-549.79401588076    ,-315.36980695786946 ,-1168.158529274242  ,139.06162004165355   ,389.3861914367529    ,240.86178486808552   ,5.639637591647264e-06   ,-4.150630165921589e-05  ,8.59196935460044e-06    ,      0.0 ,      0.0 ,      0.0 ,6.079215238977692e-06   ,-4.1945882522340904e-05 ,      0.0 ,-3.586666302310497e-05  ,2.617364753626123e-05  ,0.8413281373900214   ,0.49527814425357264     ,-0.0030459199286273233  ,-0.00026816357420990963 ,0.0010913473184402116  ,-47.46462004141006     ,0.0 ,-38.38343669508978    ,-38.38343669508978      ,        0.0 ,        0.0 , 0.0
 0.0 ,0.0 ,           0.0 ,            0.0 ,            0.0 ,            0.0 ,              0.0 ,                   0.0 , 932.0 ,77.37925 ,-26.30177 ,           0.0 ,           0.0 ,       0.0 ,-76.7527       ,-18.6265    ,0.192851         ,0.06770698       ,                 0.0 ,             0.0 ,             0.0 ,                 0.0 ,                 0.0 ,        0.0 ,1.8581356243438283     ,            0.0 ,            0.0 ,            0.0 ,              0.0 ,                   0.0 ,  0.0 ,0.0 , 787.6789910505117   ,1.0                ,0.0 ,-212.18982627136535 ,-448.6520385392233  ,-11.301414159963569     ,-222.5858183009765  ,          0.0 ,          0.0 ,-211.22306239519853 ,-449.6188024153902  ,-222.5858183009765  ,-883.427696633847   ,134.47909735064147   ,294.4758750022407   ,232.92469785053615   ,-287.8848667786232    ,-524.3470655241995  ,-11.301414159963569     ,-298.28085880823437 ,          0.0 ,          0.0 ,-286.9180893801747   ,-525.3138571090856  ,-298.28085880823437 ,-1110.5130796120243 ,134.47909735064147   ,370.17091550949846   ,232.92469785053615   ,6.207705583012603e-06   ,-5.25936102061305e-05   ,-7.46200622579906e-06   ,      0.0 ,      0.0 ,      0.0 ,6.499093491085649e-06   ,-5.2884993614937646e-05 ,      0.0 ,-4.6385901434454795e-05 ,3.25748689873531e-05   ,0.7735558041797214   ,0.7221046755490044      ,-0.0027293097868608188  ,-0.00010525205649602565 ,0.0008088472140366978  ,-24.36249300956051     ,0.0 ,-51.32983112546894    ,-51.32983112546894      ,        0.0 ,        0.0 , 0.0
 0.0 ,0.0 ,           0.0 ,            0.0 ,            0.0 ,            0.0 ,              0.0 ,                   0.0 , 933.0 ,75.85564 ,-25.67903 ,           0.0 ,           0.0 ,       0.0 ,-70.49615      ,-18.62941   ,0.4060381        ,-0.0295177       ,                 0.0 ,             0.0 ,             0.0 ,                 0.0 ,                 0.0 ,        0.0 ,0.9327058939153237     ,            0.0 ,            0.0 ,            0.0 ,              0.0 ,                   0.0 ,  0.0 ,0.0 , 770.1955325185261   ,1.0                ,0.0 ,-194.7526732206964  ,-404.65664017267113 ,-30.955117881032294     ,-201.24476939671774 ,          0.0 ,          0.0 ,-190.28174901922085 ,-409.1276232408642  ,-201.24476939671774 ,-800.6541717860609  ,123.3492889389695    ,266.8846979313699   ,213.64722855366597   ,-264.6479936906134    ,-474.5519195093056  ,-30.955117881032294     ,-271.14008986663475 ,          0.0 ,          0.0 ,-260.17698049316226  ,-479.0229437107812  ,-271.14008986663475 ,-1010.3400441998364 ,123.3492889389695    ,336.7800184012869    ,213.64722855366597   ,1.5809334089979713e-06  ,-2.425162686265429e-05  ,-7.664645961314108e-06  ,      0.0 ,      0.0 ,      0.0 ,2.1375625458051807e-06  ,-2.4808258003741676e-05 ,      0.0 ,-2.2670694826523186e-05 ,1.5009079112562775e-05 ,0.8230010010492778   ,0.5871456888452087      ,-0.001276130983640692   ,-0.00012403921518952895 ,0.0015224160032159012  ,-32.38067916654207     ,0.0 ,-37.513386921836016   ,-37.513386921836016     ,        0.0 ,        0.0 , 0.0
 0.0 ,0.0 ,           0.0 ,            0.0 ,            0.0 ,            0.0 ,              0.0 ,                   0.0 , 934.0 ,74.39287 ,-24.43185 ,           0.0 ,           0.0 ,       0.0 ,-57.99749      ,-18.6321    ,0.2490013        ,-0.02456456      ,                 0.0 ,             0.0 ,             0.0 ,                 0.0 ,                 0.0 ,        0.0 ,1.6317036630957338     ,            0.0 ,            0.0 ,            0.0 ,              0.0 ,                   0.0 ,  0.0 ,0.0 , 771.0701902038645   ,1.0                ,0.0 ,-179.12361649964149 ,-339.21547975572474 ,-31.50641981797924      ,-171.2445880713052  ,          0.0 ,          0.0 ,-172.0864767205932  ,-346.25266299779406 ,-171.2445880713052  ,-689.5836843266715  ,100.83944723711062   ,229.86122817316266  ,174.6590137315362    ,-235.79070047025476   ,-395.8826136299298  ,-31.50641981797924      ,-227.9117153121229  ,          0.0 ,          0.0 ,-228.75356069120647  ,-402.91974696840737 ,-227.9117153121229  ,-859.5849795087157  ,100.83944723711062   ,286.52835541398036   ,174.6590137315362    ,-3.0314893508667047e-06 ,-4.335058932492107e-05  ,-1.591565489979755e-05  ,      0.0 ,      0.0 ,      0.0 ,-1.3224916404183426e-06 ,-4.5059592206592314e-05 ,      0.0 ,-4.6382081546976356e-05 ,2.566785023280171e-05  ,0.8359153173140181   ,0.4323912525319585      ,-0.0009964571143046205  ,-2.169002503750518e-05  ,0.0022393523913322925  ,-27.673056860455763    ,0.0 ,-28.993099067913192   ,-28.993099067913192     ,        0.0 ,        0.0 , 0.0
 0.0 ,0.0 ,           0.0 ,            0.0 ,            0.0 ,            0.0 ,              0.0 ,                   0.0 , 935.0 ,73.18567 ,-22.81297 ,           0.0 ,           0.0 ,       0.0 ,-41.78664      ,-18.6343    ,-0.2018579       ,-0.02401916      ,                 0.0 ,             0.0 ,             0.0 ,                 0.0 ,                 0.0 ,        0.0 ,1.6527950362597803     ,            0.0 ,            0.0 ,            0.0 ,              0.0 ,                   0.0 ,  0.0 ,0.0 , 772.1820444798329   ,1.0                ,0.0 ,-162.32347629983514 ,-294.8872975785905  ,-6.043641732599349      ,-149.86758184699488 ,          0.0 ,          0.0 ,-161.16178179668134 ,-296.04903265212937 ,-149.86758184699488 ,-607.0783962958055  , 81.35927833870934   ,202.3594987652685   ,140.91839572091993   ,-204.2388568487907    ,-336.8026846322166  ,-6.043641732599349      ,-191.78291597567662 ,          0.0 ,          0.0 ,-203.07712177525184  ,-337.9644197057555  ,-191.78291597567662 ,-732.8244103816284  , 81.35927833870934   ,244.27478581889466   ,140.91839572091993   ,-2.535048900891754e-06  ,-1.332547615632811e-05  ,9.895958445107363e-07   ,      0.0 ,      0.0 ,      0.0 ,-2.4926368218084253e-06 ,-1.336788909877021e-05  ,      0.0 ,-1.5860526449828078e-05 ,7.118342333460478e-06  ,0.805154367542544    ,0.46791169070523375     ,-0.0010309173985810912  ,-6.831334359634355e-05  ,0.0028392458298469236  ,-26.560567493173426    ,0.0 ,-15.353783603165796   ,-15.353783603165796     ,        0.0 ,        0.0 , 0.0
 0.0 ,0.0 ,           0.0 ,            0.0 ,            0.0 ,            0.0 ,              0.0 ,                   0.0 , 936.0 ,79.52756 ,-27.57729 ,           0.0 ,           0.0 ,       0.0 ,-89.54612      ,-18.62267   ,0.01270789       ,0.009928124      ,                 0.0 ,             0.0 ,             0.0 ,                 0.0 ,                 0.0 ,        0.0 ,1.4973898727410897     ,            0.0 ,            0.0 ,            0.0 ,              0.0 ,                   0.0 ,  0.0 ,0.0 , 837.3073197532241   ,1.0                ,0.0 ,-222.2666597019818  ,-470.26513950289547 ,-5.506198076868832      ,-233.05502911581885 ,          0.0 ,          0.0 ,-221.4205304720724  ,-471.11127506463663 ,-233.05502911581885 ,-925.5868843915151  ,140.93059935212003   ,308.52899268656114  ,244.09897665256304   ,-310.36797499750577   ,-558.3665045374066  ,-5.506198076868832      ,-321.1563941503301  ,          0.0 ,          0.0 ,-309.52189550658363  ,-559.212677696497   ,-321.1563941503301  ,-1189.8910043003505 ,140.93059935212003   ,396.63030798208507   ,244.09897665256304   ,4.53200165424167e-06    ,-5.600674522814609e-05  ,-6.768692982856355e-07  ,      0.0 ,      0.0 ,      0.0 ,4.732001891616926e-06   ,-5.620674700928493e-05  ,      0.0 ,-5.147474237744537e-05  ,3.390006053716812e-05  ,0.8387188965533252   ,0.49629842903525256     ,-0.001916969258211473   ,-0.00011638082433256569 ,0.0010931168698054372  ,-48.479024200000694    ,0.0 ,-39.620470693266256   ,-39.620470693266256     ,        0.0 ,        0.0 , 0.0
 0.0 ,0.0 ,           0.0 ,            0.0 ,            0.0 ,            0.0 ,              0.0 ,                   0.0 , 937.0 ,77.0758  ,-27.56229 ,           0.0 ,           0.0 ,       0.0 ,-89.34806      ,-18.62749   ,0.4454704        ,0.02417242       ,                 0.0 ,             0.0 ,             0.0 ,                 0.0 ,                 0.0 ,        0.0 ,1.6799876020946363     ,            0.0 ,            0.0 ,            0.0 ,              0.0 ,                   0.0 ,  0.0 ,0.0 , 840.6717538543594   ,1.0                ,0.0 ,-208.6450004598663  ,-436.8595671075998  ,-26.82156557525385      ,-216.8932048832172  ,          0.0 ,          0.0 ,-205.28263130094444 ,-440.22193981378086 ,-216.8932048832172  ,-862.3978298076659  ,132.42288407234068   ,287.46593599972744  ,229.36322426407708   ,-296.60732161695347   ,-524.8218309077042  ,-26.82156557525385      ,-304.8555260403043  ,          0.0 ,          0.0 ,-293.244895101049    ,-528.1843000666262  ,-304.8555260403043  ,-1126.2846932789273 ,132.42288407234068   ,375.42825715681454   ,229.36322426407708   ,5.006542755069245e-06   ,-5.28560827188845e-05   ,-1.2284126697810266e-05 ,      0.0 ,      0.0 ,      0.0 ,5.752096501666267e-06   ,-5.3601636693305856e-05 ,      0.0 ,-4.7849539653542355e-05 ,3.273888732030978e-05  ,0.9880747920907824   ,0.03250232780023272     ,-0.00020341845174690737 ,-3.0364822546294317e-06 ,0.0029726889696068755  ,-82.96377184195387     ,0.0 ,-4.9984429409518745   ,-4.9984429409518745     ,        0.0 ,        0.0 , 0.0
 0.0 ,0.0 ,           0.0 ,            0.0 ,            0.0 ,            0.0 ,              0.0 ,                   0.0 , 938.0 ,74.708   ,-26.82585 ,           0.0 ,           0.0 ,       0.0 ,-81.93868      ,-18.63198   ,0.3184218        ,-0.01546584      ,                 0.0 ,             0.0 ,             0.0 ,                 0.0 ,                 0.0 ,        0.0 ,1.2270920359250885     ,            0.0 ,            0.0 ,            0.0 ,              0.0 ,                   0.0 ,  0.0 ,0.0 , 850.048253129775    ,1.0                ,0.0 ,-204.8514561225066  ,-400.67214884458804 ,-24.6262450820403       ,-201.5399056188736  ,          0.0 ,          0.0 ,-201.51403750200507 ,-404.0095879357792  ,-201.5399056188736  ,-807.0635332951717  ,116.9770798598251    ,269.02117701888596  ,202.61022147821498   ,-285.5999672393164    ,-481.42061831215864 ,-24.6262450820403       ,-282.2884167356834  ,          0.0 ,          0.0 ,-282.26252590961127  ,-484.7581179926246  ,-282.2884167356834  ,-1049.3091386365754 ,116.9770798598251    ,349.7696881356958    ,202.61022147821498   ,4.773965725837598e-07   ,-3.8738008430947754e-05 ,-1.153346806361132e-05  ,      0.0 ,      0.0 ,      0.0 ,1.3080288707615753e-06  ,-3.956864473735351e-05  ,      0.0 ,-3.826061466188504e-05  ,2.3303706985108735e-05 ,0.7804743331351063   ,0.5819670374885106      ,-0.001283979830145201   ,-4.897784788719977e-05  ,0.0015415124774139303  ,-32.78686130563585     ,0.0 ,-47.96040141489482    ,-47.96040141489482      ,        0.0 ,        0.0 , 0.0
 0.0 ,0.0 ,           0.0 ,            0.0 ,            0.0 ,            0.0 ,              0.0 ,                   0.0 , 939.0 ,72.92441 ,-25.09886 ,           0.0 ,           0.0 ,       0.0 ,-64.63647      ,-18.63521   ,-0.06586482      ,-0.01673428      ,                 0.0 ,             0.0 ,             0.0 ,                 0.0 ,                 0.0 ,        0.0 ,2.438162531009401      ,            0.0 ,            0.0 ,            0.0 ,              0.0 ,                   0.0 ,  0.0 ,0.0 , 831.8302851051062   ,1.0                ,0.0 ,-189.26427902088125 ,-353.9993549413513  ,-4.358880177487047      ,-179.55978290534182 ,          0.0 ,          0.0 ,-188.27504143565992 ,-354.98862061844613 ,-179.55978290534182 ,-722.8234168675745  , 98.87359324018195   ,240.94115721494921  ,171.25407921566773   ,-253.6888911081602    ,-418.42394441726685 ,-4.358880177487047      ,-243.9843456958576  ,          0.0 ,          0.0 ,-252.69963091157547  ,-419.41321009436166 ,-243.9843456958576  ,-916.0971359985579  , 98.87359324018195   ,305.36572000546494   ,171.25407921566773   ,-4.394672910419647e-06  ,-2.991674956625029e-05  ,-2.227933968325784e-06  ,      0.0 ,      0.0 ,      0.0 ,-4.079939183593319e-06  ,-3.0231486471556657e-05 ,      0.0 ,-3.4311425586280136e-05 ,1.6446027758650692e-05 ,0.8075466635820445   ,0.5041899635788871      ,-0.0019531873910901953  ,-3.7755514777332035e-05 ,0.0028428077810616075  ,-26.024596497453917    ,0.0 ,-38.39807942356463    ,-38.39807942356463      ,        0.0 ,        0.0 , 0.0
 0.0 ,0.0 ,           0.0 ,            0.0 ,            0.0 ,            0.0 ,              0.0 ,                   0.0 , 940.0 ,71.54247 ,-23.09986 ,           0.0 ,           0.0 ,       0.0 ,-44.62147      ,-18.63771   ,-0.1403218       ,0.01176424       ,                 0.0 ,             0.0 ,             0.0 ,                 0.0 ,                 0.0 ,        0.0 ,2.5108363181172186     ,            0.0 ,            0.0 ,            0.0 ,              0.0 ,                   0.0 ,  0.0 ,0.0 , 779.2422194348057   ,1.0                ,0.0 ,-175.39374655330934 ,-337.70795251859266 ,4.0896252892320755      ,-169.8079036723135  ,          0.0 ,          0.0 ,-175.28592085965442 ,-337.81582399340095 ,-169.8079036723135  ,-682.9096516605837  , 95.49785340595099   ,227.63658284178962  ,165.40710519566503   ,-219.79038967391023   ,-382.1045956391935  ,4.0896252892320755      ,-214.20449570928253 ,          0.0 ,          0.0 ,-219.6825639802553   ,-382.2124671140018  ,-214.20449570928253 ,-816.0995268035397  , 95.49785340595099   ,272.0331748787587    ,165.40710519566503   ,-3.563300481349622e-06  ,-3.22480462831893e-05   ,2.027940293060682e-06   ,      0.0 ,      0.0 ,      0.0 ,-3.510318955573224e-06  ,-3.230102598971268e-05  ,      0.0 ,-3.581134692361327e-05  ,1.777379096318734e-05  ,0.9882298206480813   ,0.026712930712257735    ,-0.00018973999640074373 ,-1.5512829428562769e-06 ,0.004639813737337278   ,-42.52182864945321     ,0.0 ,-1.874690691364818    ,-1.874690691364818      ,        0.0 ,        0.0 , 0.0
 0.0 ,0.0 ,           0.0 ,            0.0 ,            0.0 ,            0.0 ,              0.0 ,                   0.0 , 941.0 ,69.75776 ,-23.45792 ,           0.0 ,           0.0 ,       0.0 ,-48.16544      ,-18.64137   ,-0.07647177      ,-0.003978851     ,                 0.0 ,             0.0 ,             0.0 ,                 0.0 ,                 0.0 ,        0.0 ,2.013740385243918      ,            0.0 ,            0.0 ,            0.0 ,              0.0 ,                   0.0 ,  0.0 ,0.0 , 844.0944053915908   ,1.0                ,0.0 ,-179.35214489855287 ,-357.0357313407296  ,6.758000570987978       ,-178.33951744475468 ,          0.0 ,          0.0 ,-179.07736775794916 ,-357.3105570176726  ,-178.33951744475468 ,-714.7274923099986  ,103.11893497535067   ,238.2425140734588   ,178.60718301293093   ,-226.5165046989597    ,-404.20009114113645 ,6.758000570987978       ,-225.50387587112297 ,          0.0 ,          0.0 ,-226.24172755835596  ,-404.47491681807946 ,-225.50387587112297 ,-856.2205202475583  ,103.11893497535067   ,285.40687249982705   ,178.60718301293093   ,-3.2606213300575002e-06 ,-4.262538226575748e-05  ,2.1952265377064502e-06  ,      0.0 ,      0.0 ,      0.0 ,-3.2260758706066046e-06 ,-4.2659923337820115e-05 ,      0.0 ,-4.588600218094595e-05  ,2.3761143210575782e-05 ,0.8119542416740666   ,0.4990212781498444      ,-0.0018727662986491485  ,-2.478400444424311e-05  ,0.0018751446468675893  ,-17.21158900970809     ,0.0 ,-29.950914267656895   ,-29.950914267656895     ,        0.0 ,        0.0 , 0.0
 0.0 ,0.0 ,           0.0 ,            0.0 ,            0.0 ,            0.0 ,              0.0 ,                   0.0 , 942.0 ,67.72535 ,-23.48072 ,           0.0 ,           0.0 ,       0.0 ,-48.35262      ,-18.64546   ,-0.04157813      ,0.0007314524     ,                 0.0 ,             0.0 ,             0.0 ,                 0.0 ,                 0.0 ,        0.0 ,0.5541898661123292     ,            0.0 ,            0.0 ,            0.0 ,              0.0 ,                   0.0 ,  0.0 ,0.0 , 845.7618686413584   ,1.0                ,0.0 ,-181.73350315998414 ,-365.2451735900165  ,6.7404077613906725      ,-181.79207525675727 ,          0.0 ,          0.0 ,-181.48070163755227 ,-365.49792569470935 ,-181.79207525675727 ,-728.7707055896426  ,106.15274348927106   ,242.92356852988087  ,183.8619555903214    ,-229.03045636592688   ,-412.54212679595923 ,6.7404077613906725      ,-229.0890760443372  ,          0.0 ,          0.0 ,-228.777654843495    ,-412.79492831839116 ,-229.0890760443372  ,-870.6616592062234  ,106.15274348927106   ,290.22052173582364   ,183.8619555903214    ,-7.7853271345436e-07    ,-2.9736638587908177e-05 ,5.091556728490871e-07   ,      0.0 ,      0.0 ,      0.0 ,-7.753273211219667e-07  ,-2.973983993680273e-05  ,      0.0 ,-3.0515167842120805e-05 ,1.695258965329682e-05  ,0.6300814275269557   ,1.0                     ,-0.002128008287792806   ,-5.1775904429723874e-05 ,0.0                    ,0.0021291557447682794  ,0.0 ,-47.29698080544374    ,-47.29698080544374      ,        0.0 ,        0.0 , 0.0
 0.0 ,0.0 ,           0.0 ,            0.0 ,            0.0 ,            0.0 ,              0.0 ,                   0.0 , 943.0 ,65.64086 ,-23.42805 ,           0.0 ,           0.0 ,       0.0 ,-47.78445      ,-18.64961   ,-0.01797954      ,4.722758e-05     ,                 0.0 ,             0.0 ,             0.0 ,                 0.0 ,                 0.0 ,        0.0 ,1.9183524832349603     ,            0.0 ,            0.0 ,            0.0 ,              0.0 ,                   0.0 ,  0.0 ,0.0 , 847.285823573782    ,0.9999999999999999 ,0.0 ,-183.02531331080505 ,-368.70013715822205 ,6.163927574924176       ,-183.39866188701436 ,          0.0 ,          0.0 ,-182.81990307309874 ,-368.9054983661546  ,-183.39866188701436 ,-735.1240633262677  ,107.26987797191988   ,245.04132223155634  ,185.79683728883526   ,-229.90328968468694   ,-415.57811353210406 ,6.163927574924176       ,-230.2766416292976  ,          0.0 ,          0.0 ,-229.69787944698064  ,-415.78347474003647 ,-230.2766416292976  ,-875.7579958163146  ,107.26987797191988   ,291.91929860543826   ,185.79683728883526   ,1.6648193275220942e-06  ,-4.350664845375861e-05  ,2.481659150212769e-06   ,      0.0 ,      0.0 ,      0.0 ,1.7191677870890826e-06  ,-4.3560996970443555e-05 ,      0.0 ,-4.184183302005944e-05  ,2.566080517678905e-05  ,0.6322037933256924   ,0.9999999999999999      ,-0.003843230535146128   ,-2.6989565371415627e-05 ,0.0                    ,0.003843389272476675   ,0.0 ,-46.87797248142491    ,-46.87797248142491      ,        0.0 ,        0.0 , 0.0
 0.0 ,0.0 ,           0.0 ,            0.0 ,            0.0 ,            0.0 ,              0.0 ,                   0.0 , 944.0 ,63.57787 ,-23.32379 ,           0.0 ,           0.0 ,       0.0 ,-46.70103      ,-18.65369   ,-0.008893248     ,0.0001964126     ,                 0.0 ,             0.0 ,             0.0 ,                 0.0 ,                 0.0 ,        0.0 ,1.5677866144555417     ,            0.0 ,            0.0 ,            0.0 ,              0.0 ,                   0.0 ,  0.0 ,0.0 , 848.1591114126937   ,1.0                ,0.0 ,-183.06474829129675 ,-369.15605554420165 ,5.422116836183121       ,-183.77428718614667 ,          0.0 ,          0.0 ,-182.90646579076977 ,-369.31428892006716 ,-183.77428718614667 ,-735.9950418969836  ,107.37312401237801   ,245.33166321247654  ,185.9756613372096    ,-229.8753527900188    ,-415.96666004292376 ,5.422116836183121       ,-230.58489168486872 ,          0.0 ,          0.0 ,-229.71707028949186  ,-416.12489341878916 ,-230.58489168486872 ,-876.4268553931498  ,107.37312401237801   ,292.14226771119866   ,185.9756613372096    ,7.71793173984012e-07    ,-1.6532055768236343e-05 ,2.99621986453981e-06    ,      0.0 ,      0.0 ,      0.0 ,9.013976564368679e-07   ,-1.6661659142800276e-05 ,      0.0 ,-1.576026462193664e-05  ,9.890115054499509e-06  ,0.8063511882994844   ,0.5216529789492376      ,-0.003025371168104927   ,-1.0337883029993304e-05 ,0.0009433712675993473  ,-27.471926968067013    ,0.0 ,-19.33569127668377    ,-19.33569127668377      ,        0.0 ,        0.0 , 0.0
 0.0 ,0.0 ,           0.0 ,            0.0 ,            0.0 ,            0.0 ,              0.0 ,                   0.0 , 945.0 ,61.55768 ,-23.21837 ,           0.0 ,           0.0 ,       0.0 ,-45.60702      ,-18.65767   ,-0.004997379     ,1.660918e-05     ,                 0.0 ,             0.0 ,             0.0 ,                 0.0 ,                 0.0 ,        0.0 ,0.0                    ,            0.0 ,            0.0 ,            0.0 ,              0.0 ,                   0.0 ,  0.0 ,0.0 , 849.2281832602737   ,1.0                ,0.0 ,-182.8781023892264  ,-369.49944057251184 ,4.417572886578606       ,-183.8420919446002  ,          0.0 ,          0.0 ,-182.77247708948065 ,-369.60501779580477 ,-183.8420919446002  ,-736.2195868298857  ,107.5604141160475    ,245.40649655914893  ,186.3000967902448    ,-228.48506111760986   ,-415.10644837688136 ,4.417572886578606       ,-229.4490997489698  ,          0.0 ,          0.0 ,-228.37948489385025  ,-415.21207367662714 ,-229.4490997489698  ,-873.0406583194472  ,107.5604141160475    ,291.01355243997125   ,186.3000967902448    ,0.0                     ,0.0                     ,0.0                     ,      0.0 ,      0.0 ,      0.0 ,0.0                     ,0.0                     ,      0.0 ,0.0                     ,0.0                    ,0.8251032974932984   ,0.47973967026175046     ,-0.0009870325958021983  ,-3.917607829223861e-05  ,0.0010256173907621457  ,-18.713485969528517    ,0.0 ,-26.892587880516082   ,-26.892587880516082     ,        0.0 ,        0.0 , 0.0
 0.0 ,0.0 ,           0.0 ,            0.0 ,            0.0 ,            0.0 ,              0.0 ,                   0.0 , 946.0 ,59.58033 ,-23.11916 ,           0.0 ,           0.0 ,       0.0 ,-44.57609      ,-18.66156   ,-0.003942994     ,5.158845e-05     ,                 0.0 ,             0.0 ,             0.0 ,                 0.0 ,                 0.0 ,        0.0 ,2.9289073811368294     ,            0.0 ,            0.0 ,            0.0 ,              0.0 ,                   0.0 ,  0.0 ,0.0 , 850.4171963225706   ,1.0                ,0.0 ,-183.48819813527513 ,-370.5210736117575  ,3.3312222264718665      ,-183.96878044801892 ,          0.0 ,          0.0 ,-183.4269356095644  ,-370.58238258283734 ,-183.96878044801892 ,-737.9780986404206  ,107.898186599349     ,245.99269883987614  ,186.88510614459608   ,-226.55130666314523   ,-413.58418213962767 ,3.3312222264718665      ,-227.0319375420503  ,          0.0 ,          0.0 ,-226.4900441374345   ,-413.6454446653384  ,-227.0319375420503  ,-867.1674263448231  ,107.898186599349     ,289.05580948853844   ,186.88510614459608   ,1.1661374860795173e-06  ,-5.068198687046374e-05  ,8.064634950859586e-07   ,      0.0 ,      0.0 ,      0.0 ,1.1695682662826052e-06  ,-5.068542228872591e-05  ,      0.0 ,-4.951585148878718e-05  ,2.960826298891775e-05  ,0.6335122576941599   ,1.0                     ,-0.003022362678370507   ,-1.6485696409328658e-05 ,0.0                    ,0.0030224780869570235  ,0.0 ,-43.063114058068166   ,-43.063114058068166     ,        0.0 ,        0.0 , 0.0
 0.0 ,0.0 ,           0.0 ,            0.0 ,            0.0 ,            0.0 ,              0.0 ,                   0.0 , 947.0 ,57.64117 ,-23.02478 ,           0.0 ,           0.0 ,       0.0 ,-43.59419      ,-18.66536   ,-0.002123408     ,0.0002124526     ,                 0.0 ,             0.0 ,             0.0 ,                 0.0 ,                 0.0 ,        0.0 ,2.9861132990504897     ,            0.0 ,            0.0 ,            0.0 ,              0.0 ,                   0.0 ,  0.0 ,0.0 , 850.92742373952     ,1.0                ,0.0 ,-183.01625945758596 ,-369.5839592761311  ,2.338124016550403       ,-183.44506077007313 ,          0.0 ,          0.0 ,-182.98470915233995 ,-369.6155585885197  ,-183.44506077007313 ,-736.0452795037902  ,107.61880107015666   ,245.34844237408757  ,186.40117933125475   ,-225.0441521171787    ,-411.6118519357239  ,2.338124016550403       ,-225.47290610971584 ,          0.0 ,          0.0 ,-225.0126018119327   ,-411.64345124811246 ,-225.47290610971584 ,-862.128909864096   ,107.61880107015666   ,287.37628741520786   ,186.40117933125475   ,1.5346619859331736e-06  ,-5.2161235307844476e-05 ,4.940070010286218e-07   ,      0.0 ,      0.0 ,      0.0 ,1.5359056223960352e-06  ,-5.216247799985414e-05  ,      0.0 ,-5.0626572335798e-05    ,3.057055487639249e-05  ,0.8119622981374497   ,0.5081429189616572      ,-0.0012736850831157986  ,-1.6321309673866464e-05 ,0.0017856575705466878  ,-25.439213828270262    ,0.0 ,-16.587398412646525   ,-16.587398412646525     ,        0.0 ,        0.0 , 0.0
 0.0 ,0.0 ,           0.0 ,            0.0 ,            0.0 ,            0.0 ,              0.0 ,                   0.0 , 948.0 ,55.73192 ,-22.963   ,           0.0 ,           0.0 ,       0.0 ,-42.93903      ,-18.6691    ,0.000549434      ,5.453772e-05     ,                 0.0 ,             0.0 ,             0.0 ,                 0.0 ,                 0.0 ,        0.0 ,2.004652448361308      ,            0.0 ,            0.0 ,            0.0 ,              0.0 ,                   0.0 ,  0.0 ,0.0 , 851.2443244030998   ,1.0                ,0.0 ,-182.27216425422205 ,-367.7326729403258  ,1.3943739680775282      ,-182.60837645388213 ,          0.0 ,          0.0 ,-182.25784624219622 ,-367.7469917892037  ,-182.60837645388213 ,-732.61321364843    ,106.99121015811254   ,244.20440454947666  ,185.31418388073888   ,-224.12791935978237   ,-409.5883288827382  ,1.3943739680775282      ,-224.46413072259037 ,          0.0 ,          0.0 ,-224.11360134775657  ,-409.6026970805676  ,-224.46413072259037 ,-858.1804291509145  ,106.99121015811254   ,286.06015965503695   ,185.31418388073888   ,2.157008698966898e-06   ,-4.562628575686889e-05  ,2.3312200390791194e-06  ,      0.0 ,      0.0 ,      0.0 ,2.2484302628542537e-06  ,-4.571770587004572e-05  ,      0.0 ,-4.346927407370266e-05  ,2.706766121714083e-05  ,0.8148172193850755   ,0.497043675882347       ,-0.002826624683029995   ,-1.6717714044837353e-05 ,0.0010983693719633556  ,-25.304854913608334    ,0.0 ,-16.548061836227667   ,-16.548061836227667     ,        0.0 ,        0.0 , 0.0
 0.0 ,0.0 ,           0.0 ,            0.0 ,            0.0 ,            0.0 ,              0.0 ,                   0.0 , 949.0 ,53.84199 ,-22.94394 ,           0.0 ,           0.0 ,       0.0 ,-42.71151      ,-18.67279   ,0.005557355      ,0.0003698037     ,                 0.0 ,             0.0 ,             0.0 ,                 0.0 ,                 0.0 ,        0.0 ,0.4988299456212348     ,            0.0 ,            0.0 ,            0.0 ,              0.0 ,                   0.0 ,  0.0 ,0.0 , 851.8382569844455   ,1.0                ,0.0 ,-181.34541964967235 ,-365.60124152524355 ,0.20958896936175508     ,-181.5961473632321  ,          0.0 ,          0.0 ,-181.33882007688854 ,-365.60794083646533 ,-181.5961473632321  ,-728.5428085381479  ,106.31370666736794   ,242.84758614038086  ,184.14073419852593   ,-223.00887767486896   ,-407.2647489103107  ,0.20958896936175508     ,-223.25960538842872 ,          0.0 ,          0.0 ,-223.00227810208514  ,-407.27139886166196 ,-223.25960538842872 ,-853.5332322351704  ,106.31370666736794   ,284.51104416557746   ,184.14073419852593   ,1.0001259774415975e-06  ,-2.8054957726835324e-05 ,-9.080127642185154e-07  ,      0.0 ,      0.0 ,      0.0 ,1.0072424875258573e-06  ,-2.8062075218885753e-05 ,      0.0 ,-2.705483273920676e-05  ,1.6500108688267873e-05 ,0.814477370440123    ,0.5000873908720248      ,-0.0009908474719068983  ,-4.666899054565441e-05  ,0.0010827537531105528  ,-25.095175946706124    ,0.0 ,-16.56733886201624    ,-16.56733886201624      ,        0.0 ,        0.0 , 0.0
 0.0 ,0.0 ,           0.0 ,            0.0 ,            0.0 ,            0.0 ,              0.0 ,                   0.0 , 950.0 ,51.96147 ,-22.95913 ,           0.0 ,           0.0 ,       0.0 ,-42.82676      ,-18.67645   ,0.02557313       ,-0.003099368     ,                 0.0 ,             0.0 ,             0.0 ,                 0.0 ,                 0.0 ,        0.0 ,2.7773808313219543     ,            0.0 ,            0.0 ,            0.0 ,              0.0 ,                   0.0 ,  0.0 ,0.0 , 850.9664632072733   ,1.0                ,0.0 ,-181.2808001190004  ,-364.0279506532796  ,0.2111534399210547      ,-180.99630676358242 ,          0.0 ,          0.0 ,-181.27834996462389 ,-364.0304243933014  ,-180.99630676358242 ,-726.3050824452362  ,105.59367265791246   ,242.10169414841204  ,182.8936581763411    ,-223.01588304045833   ,-405.7630820697566  ,0.2111534399210547      ,-222.7314145944141  ,          0.0 ,          0.0 ,-223.01345779545562  ,-405.76555881974025 ,-222.7314145944141  ,-851.5104561189837  ,105.59367265791246   ,283.8368019792438    ,182.8936581763411    ,-4.471045760625157e-07  ,-4.44976080539974e-05   ,1.2711218631012965e-06  ,      0.0 ,      0.0 ,      0.0 ,-3.7764045869894915e-07 ,-4.456706910517455e-05  ,      0.0 ,-4.494471212226021e-05  ,2.567322848665643e-05  ,0.9074007730949227   ,0.24567117912007888     ,-0.0006716409082968766  ,-8.55922947969445e-06   ,0.003422930715290075   ,-28.75695941513868     ,0.0 ,-12.977549576338678   ,-12.977549576338678     ,        0.0 ,        0.0 , 0.0
 0.0 ,0.0 ,           0.0 ,            0.0 ,            0.0 ,            0.0 ,              0.0 ,                   0.0 , 951.0 ,50.0809  ,-23.0213  ,           0.0 ,           0.0 ,       0.0 ,-43.41202      ,-18.6801    ,-0.004583163     ,0.002662438      ,                 0.0 ,             0.0 ,             0.0 ,                 0.0 ,                 0.0 ,        0.0 ,3.4738620234588997     ,            0.0 ,            0.0 ,            0.0 ,              0.0 ,                   0.0 ,  0.0 ,0.0 , 850.4698547369064   ,1.0                ,0.0 ,-180.90043875201314 ,-362.05497427087835 ,1.2196789925634772      ,-180.32875667700887 ,          0.0 ,          0.0 ,-180.88798398588793 ,-362.06742903700354 ,-180.32875667700887 ,-723.2842170861027  ,104.76597837156368   ,241.09472984940885  ,181.46006896756285   ,-223.23709902031953   ,-404.39168192538705 ,1.2196789925634772      ,-222.6654643315176  ,          0.0 ,          0.0 ,-223.22469164039666  ,-404.40411438123147 ,-222.6654643315176  ,-850.294317739348   ,104.76597837156368   ,283.4314375039176    ,181.46006896756285   ,-3.996072988792858e-06  ,-4.3817090375522215e-05 ,1.0515181848145386e-06  ,      0.0 ,      0.0 ,      0.0 ,-3.936314654434214e-06  ,-4.387684334057073e-05  ,      0.0 ,-4.781315939500833e-05  ,2.4319145073914672e-05 ,0.8238443990202831   ,0.4708682126077686      ,-0.0012362149724351457  ,-1.6282600441842505e-05 ,0.0029943191404042755  ,-17.647745360743016    ,0.0 ,-24.687765991906613   ,-24.687765991906613     ,        0.0 ,        0.0 , 0.0
 0.0 ,0.0 ,           0.0 ,            0.0 ,            0.0 ,            0.0 ,              0.0 ,                   0.0 , 952.0 ,48.19126 ,-23.23109 ,           0.0 ,           0.0 ,       0.0 ,-45.47323      ,-18.68376   ,-0.03823397      ,-0.005002965     ,                 0.0 ,             0.0 ,             0.0 ,                 0.0 ,                 0.0 ,        0.0 ,3.491407088358862      ,            0.0 ,            0.0 ,            0.0 ,              0.0 ,                   0.0 ,  0.0 ,0.0 , 853.8382440127687   ,1.0                ,0.0 ,-181.86125402384383 ,-364.9753983146232  ,1.1704226122613945      ,-181.53446421983827 ,          0.0 ,          0.0 ,-181.85317781182596 ,-364.98342469793266 ,-181.53446421983827 ,-728.3711656990141  ,105.82295286710627   ,242.79038822281046  ,183.29076106804837   ,-226.15953438997735   ,-409.27372782146557 ,1.1704226122613945      ,-225.83279372668062 ,          0.0 ,          0.0 ,-226.15155714737676  ,-409.2817050640662  ,-225.83279372668062 ,-861.2661050788324  ,105.82295286710627   ,287.08871772965284   ,183.29076106804837   ,-2.244814919511033e-06  ,-4.534535072340326e-05  ,2.685777845558703e-07   ,      0.0 ,      0.0 ,      0.0 ,-2.219423511074284e-06  ,-4.537073866795291e-05  ,      0.0 ,-4.7590164137803884e-05 ,2.5647498224616437e-05 ,0.6331868525059676   ,0.9896351651311264      ,-0.004103499595534036   ,-6.519404889683275e-05  ,5.902056614305415e-05  ,-0.34861807500439884   ,0.0 ,-43.94559875397715    ,-43.94559875397715      ,        0.0 ,        0.0 , 0.0
 0.0 ,0.0 ,           0.0 ,            0.0 ,            0.0 ,            0.0 ,              0.0 ,                   0.0 , 953.0 ,46.29712 ,-23.48519 ,           0.0 ,           0.0 ,       0.0 ,-47.97768      ,-18.68743   ,-0.01640914      ,-0.0003659115    ,                 0.0 ,             0.0 ,             0.0 ,                 0.0 ,                 0.0 ,        0.0 ,0.5225978171359915     ,            0.0 ,            0.0 ,            0.0 ,              0.0 ,                   0.0 ,  0.0 ,0.0 , 855.2154845193998   ,1.0                ,0.0 ,-182.39517497267101 ,-368.6353682503062  ,1.0260665218224103      ,-182.93409354050033 ,          0.0 ,          0.0 ,-182.38440596415165 ,-368.64608699771736 ,-182.93409354050033 ,-733.9645870245856  ,107.37994186835918   ,244.65487892115917  ,185.9874599120276    ,-229.3134608441217    ,-415.55365412175695 ,1.0260665218224103      ,-229.85237941195103 ,          0.0 ,          0.0 ,-229.30274209671057  ,-415.5644222899796  ,-229.85237941195103 ,-874.7194943778297  ,107.37994186835918   ,291.5731647926099    ,185.9874599120276    ,1.6052020375392142e-06  ,-2.9740935305174035e-05 ,-1.3209027182483166e-06 ,      0.0 ,      0.0 ,      0.0 ,1.6199374739528803e-06  ,-2.975567273954634e-05  ,      0.0 ,-2.8135737271955063e-05 ,1.7665661823227692e-05 ,0.8153133456122768   ,0.5015173017999688      ,-0.0010014952881476074  ,-9.366499966562157e-05  ,0.0010937806133681442  ,-18.875073044551296    ,0.0 ,-28.042227381544834   ,-28.042227381544834     ,        0.0 ,        0.0 , 0.0
 0.0 ,0.0 ,           0.0 ,            0.0 ,            0.0 ,            0.0 ,              0.0 ,                   0.0 , 954.0 ,44.39998 ,-23.76247 ,           0.0 ,           0.0 ,       0.0 ,-50.71397      ,-18.69108   ,-0.007095092     ,-0.000509692     ,                 0.0 ,             0.0 ,             0.0 ,                 0.0 ,                 0.0 ,        0.0 ,1.9953256062905638     ,            0.0 ,            0.0 ,            0.0 ,              0.0 ,                   0.0 ,  0.0 ,0.0 , 856.4879882177806   ,1.0                ,0.0 ,-183.97044288946142 ,-372.8391108228951  ,0.037789401178456805    ,-184.94755298745343 ,          0.0 ,          0.0 ,-183.96562517227954 ,-372.84392854007706 ,-184.94755298745343 ,-741.7571060410869  ,108.76676378254048   ,247.2523688999367   ,188.3895038061512    ,-233.68320566102966   ,-422.5519233129228  ,0.037789401178456805    ,-234.66031575902161 ,          0.0 ,          0.0 ,-233.67838794384778  ,-422.5567410301047  ,-234.66031575902161 ,-890.895444732974   ,108.76676378254048   ,296.9651316715049    ,188.3895038061512    ,1.2129942425480652e-06  ,-2.9170057034803818e-05 ,-1.8792441109057034e-06 ,      0.0 ,      0.0 ,      0.0 ,1.2420608284079545e-06  ,-2.9199125138566413e-05 ,      0.0 ,-2.7957063839322792e-05 ,1.7227882948853255e-05 ,1.0                  ,-0.0022112428935701337  ,-0.00011632894363327375 ,0.0                     ,0.0022182883487423307  ,-49.71278291287703     ,0.0 ,0.0                   ,0.0                     ,        0.0 ,        0.0 , 0.0
 0.0 ,0.0 ,           0.0 ,            0.0 ,            0.0 ,            0.0 ,              0.0 ,                   0.0 , 955.0 ,42.50062 ,-24.06189 ,           0.0 ,           0.0 ,       0.0 ,-53.6717       ,-18.69472   ,-0.004785332     ,-0.0004017018    ,                 0.0 ,             0.0 ,             0.0 ,                 0.0 ,                 0.0 ,        0.0 ,0.5132150449948416     ,            0.0 ,            0.0 ,            0.0 ,              0.0 ,                   0.0 ,  0.0 ,0.0 , 857.8593213767557   ,1.0                ,0.0 ,-185.57706919403873 ,-376.3963616010189  ,-0.9288146832241466     ,-186.7107706933097  ,          0.0 ,          0.0 ,-185.56929243966277 ,-376.4040884577225  ,-186.7107706933097  ,-748.6842014883674  ,109.8505404208193    ,249.5614337108031   ,190.26669980312926   ,-238.18271497388056   ,-429.00205748318837 ,-0.9288146832241466     ,-239.31641647315152 ,          0.0 ,          0.0 ,-238.17503786354655  ,-429.0098342375643  ,-239.31641647315152 ,-906.50123867659    ,109.8505404208193    ,302.1670794906449    ,190.26669980312926   ,1.4849014415680406e-06  ,-2.9155409897830428e-05 ,-1.1717302590479903e-06 ,      0.0 ,      0.0 ,      0.0 ,1.496130567139978e-06   ,-2.9166634044313873e-05 ,      0.0 ,-2.7670503972591033e-05 ,1.7287457902292302e-05 ,1.0                  ,-0.0020022501585196784  ,-0.00017792723318818621 ,0.0                     ,0.002019582792178109   ,-52.60567574958127     ,0.0 ,0.0                   ,0.0                     ,        0.0 ,        0.0 , 0.0
 0.0 ,0.0 ,           0.0 ,            0.0 ,            0.0 ,            0.0 ,              0.0 ,                   0.0 , 956.0 ,40.6001  ,-24.39012 ,           0.0 ,           0.0 ,       0.0 ,-56.91745      ,-18.69838   ,-0.002586946     ,-0.0004199372    ,                 0.0 ,             0.0 ,             0.0 ,                 0.0 ,                 0.0 ,        0.0 ,2.009455539682696      ,            0.0 ,            0.0 ,            0.0 ,              0.0 ,                   0.0 ,  0.0 ,0.0 , 859.3939049708653   ,1.0                ,0.0 ,-187.20398891608158 ,-379.66659303804516 ,-1.8292567207287558     ,-188.38238238012414 ,          0.0 ,          0.0 ,-187.18503296075792 ,-379.68559928648114 ,-188.38238238012414 ,-755.2529644476986  ,110.79624891518328   ,251.75098826900927  ,191.90473901576667   ,-243.12163068205854   ,-435.58418451090984 ,-1.8292567207287558     ,-244.29997385298878 ,          0.0 ,          0.0 ,-243.10262443362257  ,-435.6031907593458  ,-244.29997385298878 ,-923.0057890459572  ,110.79624891518328   ,307.66857974187394   ,191.90473901576667   ,8.341464625815448e-07   ,-2.8239474956802774e-05 ,-1.6687191242550483e-06 ,      0.0 ,      0.0 ,      0.0 ,8.580723132891112e-07   ,-2.8263396803120557e-05 ,      0.0 ,-2.7405328996585115e-05 ,1.657114045324521e-05  ,0.8190389207335593   ,0.4969521323457566      ,-0.0008995126528753559  ,-0.00023002807917606443 ,0.0012512239171061704  ,-31.322781475287375    ,0.0 ,-24.593889224599515   ,-24.593889224599515     ,        0.0 ,        0.0 , 0.0
 0.0 ,0.0 ,           0.0 ,            0.0 ,            0.0 ,            0.0 ,              0.0 ,                   0.0 , 957.0 ,38.69936 ,-24.75564 ,           0.0 ,           0.0 ,       0.0 ,-60.53564      ,-18.70207   ,0.0009631499     ,-0.0001359747    ,                 0.0 ,             0.0 ,             0.0 ,                 0.0 ,                 0.0 ,        0.0 ,1.493699717460001      ,            0.0 ,            0.0 ,            0.0 ,              0.0 ,                   0.0 ,  0.0 ,0.0 , 861.0976422143854   ,1.0                ,0.0 ,-189.2036094987405  ,-383.5273681550922  ,-2.604136871597304      ,-190.1814997396902  ,          0.0 ,          0.0 ,-189.1673914030937  ,-383.56363562071067 ,-190.1814997396902  ,-762.9125274853831  ,111.94314651719804   ,254.30414297638666  ,193.8912718383999    ,-247.91724176165954   ,-442.2409503261509  ,-2.604136871597304      ,-248.89508263263747 ,          0.0 ,          0.0 ,-247.88097429604096  ,-442.2772177917695  ,-248.89508263263747 ,-939.0532255341967  ,111.94314651719804   ,313.0177251474455    ,193.8912718383999    ,8.188480663770387e-07   ,-5.32764462148659e-05   ,-3.480836007964821e-06  ,      0.0 ,      0.0 ,      0.0 ,8.770910729826383e-07   ,-5.3334697269337796e-05 ,      0.0 ,-5.2457601989544506e-05 ,3.1049090258087524e-05 ,0.64160684918112     ,0.9927672293156841      ,-0.0029146160356336897  ,-2.703145801444648e-06  ,1.454738884173051e-05  ,-0.5185525928251132    ,0.0 ,-58.19211960403125    ,-58.19211960403125      ,        0.0 ,        0.0 , 0.0
 0.0 ,0.0 ,           0.0 ,            0.0 ,            0.0 ,            0.0 ,              0.0 ,                   0.0 , 958.0 ,36.79421 ,-25.14143 ,           0.0 ,           0.0 ,       0.0 ,-64.35594      ,-18.70584   ,0.002062876      ,-0.0001073828    ,                 0.0 ,             0.0 ,             0.0 ,                 0.0 ,                 0.0 ,        0.0 ,0.5242144420310556     ,            0.0 ,            0.0 ,            0.0 ,              0.0 ,                   0.0 ,  0.0 ,0.0 , 862.63658705227     ,1.0                ,0.0 ,-190.28025159208252 ,-385.6126276963007  ,-3.239777932347369      ,-191.4616208693126  ,          0.0 ,          0.0 ,-190.22420068825724 ,-385.6686273878315  ,-191.4616208693126  ,-767.3545477341552  ,112.48457283100794   ,255.78488177055422  ,194.8290269497141    ,-253.57703101672962   ,-448.90940712094783 ,-3.239777932347369      ,-254.75845029500795 ,          0.0 ,          0.0 ,-253.5210313251988   ,-448.9654068124786  ,-254.75845029500795 ,-957.244892066424   ,112.48457283100794   ,319.08161361874204   ,194.8290269497141    ,2.8737119581794235e-07  ,-2.8356038078645408e-05 ,-2.481822118201191e-06  ,      0.0 ,      0.0 ,      0.0 ,3.412121446849566e-07   ,-2.8409879059004823e-05 ,      0.0 ,-2.806866655531295e-05  ,1.6501954016573063e-05 ,0.9956326397697475   ,0.010088405938339186    ,-0.0003738787597753183  ,-2.360641371645356e-07  ,0.0020698985849694424  ,-62.38564609967911     ,0.0 ,-0.9110647683702326   ,-0.9110647683702326     ,        0.0 ,        0.0 , 0.0
 0.0 ,0.0 ,           0.0 ,            0.0 ,            0.0 ,            0.0 ,              0.0 ,                   0.0 , 959.0 ,34.87251 ,-25.4683  ,           0.0 ,           0.0 ,       0.0 ,-67.58639      ,-18.70966   ,0.002687376      ,-7.454344e-05    ,                 0.0 ,             0.0 ,             0.0 ,                 0.0 ,                 0.0 ,        0.0 ,3.4895844143507357     ,            0.0 ,            0.0 ,            0.0 ,              0.0 ,                   0.0 ,  0.0 ,0.0 , 862.2593433183276   ,1.0                ,0.0 ,-192.04509321842835 ,-388.31825987818974 ,-4.0314723021627525     ,-192.8635424845232  ,          0.0 ,          0.0 ,-191.96046932118557 ,-388.4028335840075  ,-192.8635424845232  ,-773.2268951982912  ,113.15628479144678   ,257.742281857874    ,195.99241295129013   ,-258.1908714665716    ,-454.464038126333   ,-4.0314723021627525     ,-259.0093210160443  ,          0.0 ,          0.0 ,-258.10634728595096  ,-454.54861211552856 ,-259.0093210160443  ,-971.6644295749096  ,113.15628479144678   ,323.8881100140644    ,195.99241295129013   ,-4.866631600202707e-07  ,-4.762946968761233e-05  ,-3.954011243579242e-06  ,      0.0 ,      0.0 ,      0.0 ,-3.930865795683489e-07  ,-4.7723052058406946e-05 ,      0.0 ,-4.81161338269788e-05   ,2.744152150111231e-05  ,0.6382355280276045   ,1.0                     ,-0.004109088243906812   ,-2.1882834666924764e-05 ,0.0                    ,0.004109748673420287   ,0.0 ,-66.145798353051      ,-66.145798353051        ,        0.0 ,        0.0 , 0.0
 0.0 ,0.0 ,           0.0 ,            0.0 ,            0.0 ,            0.0 ,              0.0 ,                   0.0 , 960.0 ,32.947   ,-25.75527 ,           0.0 ,           0.0 ,       0.0 ,-70.41724      ,-18.71355   ,0.004337364      ,-8.388132e-05    ,                 0.0 ,             0.0 ,             0.0 ,                 0.0 ,                 0.0 ,        0.0 ,0.5129933914980465     ,            0.0 ,            0.0 ,            0.0 ,              0.0 ,                   0.0 ,  0.0 ,0.0 , 862.5929466052937   ,1.0                ,0.0 ,-193.09200159224437 ,-390.66499690046567 ,-4.562001702811511      ,-194.17610825921082 ,          0.0 ,          0.0 ,-192.98523525466715 ,-390.77166357072645 ,-194.17610825921082 ,-777.933007417288   ,113.85004858523644   ,259.31100238246484  ,197.19408006353686   ,-262.42338454413857   ,-459.9963298837549  ,-4.562001702811511      ,-263.5074909412116  ,          0.0 ,          0.0 ,-262.3166185392449   ,-460.1030962213322  ,-263.5074909412116  ,-985.9271063043657  ,113.85004858523644   ,328.6423853343591    ,197.19408006353686   ,1.8496339151431162e-08  ,-2.820214334712037e-05  ,-3.198597383020184e-06  ,      0.0 ,      0.0 ,      0.0 ,1.0884208956142293e-07  ,-2.8292488452962254e-05 ,      0.0 ,-2.818364626299786e-05  ,1.6366185446139312e-05 ,0.6392837198718452   ,1.0                     ,-0.0020883317995945274  ,-0.00047274831835543375 ,0.0                    ,0.0021949810065689575  ,0.0 ,-69.33139281066849    ,-69.33139281066849      ,        0.0 ,        0.0 , 0.0
 0.0 ,0.0 ,           0.0 ,            0.0 ,            0.0 ,            0.0 ,              0.0 ,                   0.0 , 961.0 ,31.02771 ,-26.02583 ,           0.0 ,           0.0 ,       0.0 ,-73.083        ,-18.71753   ,0.006192802      ,6.679496e-06     ,                 0.0 ,             0.0 ,             0.0 ,                 0.0 ,                 0.0 ,        0.0 ,2.9882352940049657     ,            0.0 ,            0.0 ,            0.0 ,              0.0 ,                   0.0 ,  0.0 ,0.0 , 863.3276214609207   ,0.9999999999999999 ,0.0 ,-195.0874361943055  ,-393.88192760543313 ,-5.0072054144788325     ,-195.7636165043126  ,          0.0 ,          0.0 ,-194.95919079705715 ,-394.0101227759843  ,-195.7636165043126  ,-784.7328803040513  ,114.69067331877329   ,261.5776431180926   ,198.650040635042     ,-266.30987226940664   ,-465.1044124610793  ,-5.0072054144788325     ,-266.98605185633767 ,          0.0 ,          0.0 ,-266.1816763757794   ,-465.23260835470654 ,-266.98605185633767 ,-998.4001385723392  ,114.69067331877329   ,332.8001286968148    ,198.650040635042     ,-7.423721867189791e-07  ,-5.134598969000156e-05  ,-6.0982169292669215e-06 ,      0.0 ,      0.0 ,      0.0 ,-5.5542220394673e-07    ,-5.1532940257325416e-05 ,      0.0 ,-5.2088362356503845e-05 ,2.9593629799087345e-05 ,0.8161744291294515   ,0.5031423016671586      ,-0.0012682112586022566  ,-5.095095849247468e-06  ,0.0018214946476123913  ,-39.5798867496948      ,0.0 ,-31.641335534177372   ,-31.641335534177372     ,        0.0 ,        0.0 , 0.0
 0.0 ,0.0 ,           0.0 ,            0.0 ,            0.0 ,            0.0 ,              0.0 ,                   0.0 , 962.0 ,29.11867 ,-26.29335 ,           0.0 ,           0.0 ,       0.0 ,-75.71674      ,-18.72168   ,0.005185696      ,-0.0001841747    ,                 0.0 ,             0.0 ,             0.0 ,                 0.0 ,                 0.0 ,        0.0 ,4.0                    ,            0.0 ,            0.0 ,            0.0 ,              0.0 ,                   0.0 ,  0.0 ,0.0 , 864.2461275899194   ,1.0                ,0.0 ,-196.52040093143188 ,-396.11122705530397 ,-5.5678636111487485     ,-196.99148011815188 ,          0.0 ,          0.0 ,-196.36298155920664 ,-396.2686464275292  ,-196.99148011815188 ,-789.6231071457889  ,115.23460138076207   ,263.2077191831513   ,199.59221210447743   ,-270.18406025362606   ,-469.77498541839947 ,-5.5678636111487485     ,-270.65518903668135 ,          0.0 ,          0.0 ,-270.0266904777361   ,-469.93235519428947 ,-270.65518903668135 ,-1010.6142840015038 ,115.23460138076207   ,336.87137850534543   ,199.59221210447743   ,-8.200558131564763e-07  ,-5.319887141214759e-05  ,-7.466424400660618e-06  ,      0.0 ,      0.0 ,      0.0 ,-5.537120224671324e-07  ,-5.3465215112191816e-05 ,      0.0 ,-5.401892582707681e-05  ,3.0709561969057315e-05 ,0.8182534822242645   ,0.5027944848005874      ,-0.0012640777661932449  ,-4.673881066780684e-06  ,0.0012421669975297542  ,-32.51531636068689     ,0.0 ,-41.14712676301013    ,-41.14712676301013      ,        0.0 ,        0.0 , 0.0
 0.0 ,0.0 ,           0.0 ,            0.0 ,            0.0 ,            0.0 ,              0.0 ,                   0.0 , 963.0 ,27.22091 ,-26.57352 ,           0.0 ,           0.0 ,       0.0 ,-78.47432      ,-18.72609   ,0.003598136      ,-0.0002811328    ,                 0.0 ,             0.0 ,             0.0 ,                 0.0 ,                 0.0 ,        0.0 ,2.48647920177055       ,            0.0 ,            0.0 ,            0.0 ,              0.0 ,                   0.0 ,  0.0 ,0.0 , 863.5594807249213   ,1.0                ,0.0 ,-198.10073040286147 ,-398.72405848432965 ,-6.18485717838395       ,-198.43379455261606 ,          0.0 ,          0.0 ,-197.91019528896877 ,-398.9146433792967  ,-198.43379455261606 ,-795.2586332208815  ,115.89912345428382   ,265.0861942567294   ,200.7431483554625    ,-274.47390159432246   ,-475.09722910921346 ,-6.18485717838395       ,-274.80696517749993 ,          0.0 ,          0.0 ,-274.2833662486621   ,-475.2877644548738  ,-274.80696517749993 ,-1024.3779965506549 ,115.89912345428382   ,341.459315667116     ,200.7431483554625    ,-9.883794237547116e-07  ,-5.275104341019729e-05  ,-7.946798906077731e-06  ,      0.0 ,      0.0 ,      0.0 ,-6.850808412598404e-07  ,-5.305434693031705e-05  ,      0.0 ,-5.373942453227765e-05  ,3.0435389595803517e-05 ,0.8174735956833789   ,0.503265947563524       ,-0.0011025815565214646  ,1.8913909702853765e-06  ,0.0012409891435704128  ,-32.484644825329966    ,0.0 ,-43.88741158184975    ,-43.88741158184975      ,        0.0 ,        0.0 , 0.0
 0.0 ,0.0 ,           0.0 ,            0.0 ,            0.0 ,            0.0 ,              0.0 ,                   0.0 , 964.0 ,25.33294 ,-26.89365 ,           0.0 ,           0.0 ,       0.0 ,-81.62654      ,-18.731     ,0.006038794      ,-3.336797e-05    ,                 0.0 ,             0.0 ,             0.0 ,                 0.0 ,                 0.0 ,        0.0 ,1.7290435154714523     ,            0.0 ,            0.0 ,            0.0 ,              0.0 ,                   0.0 ,  0.0 ,0.0 , 703.8091539326322   ,1.0                ,0.0 ,-199.7046757668403  ,-401.420376140768   ,-6.481270401287608      ,-199.94056909037565 ,          0.0 ,          0.0 ,-199.4942109611655  ,-401.63089046805055 ,-199.94056909037565 ,-801.0656957587878  ,116.57507950965442   ,267.021898280027    ,201.91392658114393   ,-279.2115213115426    ,-480.9271459869207  ,-6.481270401287608      ,-279.44733987427406 ,          0.0 ,          0.0 ,-279.0009817450639   ,-481.1376855533994  ,-279.44733987427406 ,-1039.5860296177357 ,116.57507950965442   ,346.5286438247293    ,201.91392658114393   ,-1.6409706676805466e-06 ,-4.199052991585898e-05  ,-6.750131934409998e-06  ,      0.0 ,      0.0 ,      0.0 ,-1.353116788466457e-06  ,-4.227838563945657e-05  ,      0.0 ,-4.363150213482995e-05  ,2.4045360741062165e-05 ,0.7162943533776303   ,0.7563774139844502      ,-0.0016510185291344786  ,3.345780740604953e-06   ,0.00060808207347146    ,-22.129428444619165    ,0.0 ,-57.37570206544924    ,-57.37570206544924      ,        0.0 ,        0.0 , 0.0
 0.0 ,0.0 ,           0.0 ,            0.0 ,            0.0 ,            0.0 ,              0.0 ,                   0.0 , 965.0 ,23.44862 ,-27.27397 ,           0.0 ,           0.0 ,       0.0 ,-85.37233      ,-18.73674   ,0.006629106      ,-1.076349e-05    ,                 0.0 ,             0.0 ,             0.0 ,                 0.0 ,                 0.0 ,        0.0 ,3.0044366097333914     ,            0.0 ,            0.0 ,            0.0 ,              0.0 ,                   0.0 ,  0.0 ,0.0 , 766.680800576525    ,1.0                ,0.0 ,-201.4232403834136  ,-404.0978881363165  ,-6.496191276538266      ,-201.5586970574693  ,          0.0 ,          0.0 ,-201.21248501968503 ,-404.3086777859042  ,-201.5586970574693  ,-807.0798598630587  ,117.1579095004019    ,269.026636694963    ,202.9234394808799    ,-285.14023676120473   ,-487.81486857813627 ,-6.496191276538266      ,-285.27561035635955 ,          0.0 ,          0.0 ,-284.9294311756457   ,-488.0256741636954  ,-285.27561035635955 ,-1058.2309002033903 ,117.1579095004019    ,352.74358285092364   ,202.9234394808799    ,-1.7276203936707382e-06 ,-3.5691863710908466e-05 ,-6.074217746404909e-06  ,      0.0 ,      0.0 ,      0.0 ,-1.4520001036947003e-06 ,-3.5967481667877184e-05 ,      0.0 ,-3.7419481259502304e-05 ,2.0384719031161377e-05 ,1.0                  ,-0.00275375361445332    ,-0.000783946761808658   ,0.0                     ,0.0031869152801858314  ,-83.71697489248739     ,0.0 ,0.0                   ,0.0                     ,        0.0 ,        0.0 , 0.0
 0.0 ,0.0 ,           0.0 ,            0.0 ,            0.0 ,            0.0 ,              0.0 ,                   0.0 , 966.0 ,21.53854 ,-27.61826 ,           0.0 ,           0.0 ,       0.0 ,-88.74902      ,-18.74335   ,0.006020876      ,-8.470534e-05    ,                 0.0 ,             0.0 ,             0.0 ,                 0.0 ,                 0.0 ,        0.0 ,2.048899037202648      ,            0.0 ,            0.0 ,            0.0 ,              0.0 ,                   0.0 ,  0.0 ,0.0 , 870.6482844821351   ,1.0                ,0.0 ,-202.78184857955608 ,-406.4285820694531  ,-6.573240770173275      ,-202.99781719009195 ,          0.0 ,          0.0 ,-202.56907969356263 ,-406.64132728082365 ,-202.99781719009195 ,-812.2082502840531  ,117.69764831835067   ,270.7360842430016   ,203.8583443678924    ,-290.5080022461866    ,-494.1547357360836  ,-6.573240770173275      ,-290.7239196342465  ,          0.0 ,          0.0 ,-290.295257034816    ,-494.36748094745417 ,-290.7239196342465  ,-1075.3867625064204 ,117.69764831835067   ,358.46223546468025   ,203.8583443678924    ,-8.790337968772106e-07  ,-2.503148321222697e-05  ,-4.430541297684164e-06  ,      0.0 ,      0.0 ,      0.0 ,-6.768330548431289e-07  ,-2.5233683984761255e-05 ,      0.0 ,-2.5910515743792387e-05 ,1.43772725422735e-05   ,1.0                  ,-0.0026851187852124335  ,-0.0022526838044660182  ,0.0                     ,0.003933763039520485   ,-87.72616244415457     ,0.0 ,0.0                   ,0.0                     ,        0.0 ,        0.0 , 0.0
 0.0 ,0.0 ,           0.0 ,            0.0 ,            0.0 ,            0.0 ,              0.0 ,                   0.0 , 967.0 ,19.60607 ,-27.94108 ,           0.0 ,           0.0 ,       0.0 ,-91.89867      ,-18.75121   ,0.006006963      ,0.000124019      ,                 0.0 ,             0.0 ,             0.0 ,                 0.0 ,                 0.0 ,        0.0 ,0.9995281043914068     ,            0.0 ,            0.0 ,            0.0 ,              0.0 ,                   0.0 ,  0.0 ,0.0 , 869.8188769831023   ,1.0                ,0.0 ,-204.67909408149455 ,-409.2722481737773  ,-6.6081564123722085     ,-204.76664060547589 ,          0.0 ,          0.0 ,-204.46502756282626 ,-409.48621476586146 ,-204.76664060547589 ,-818.717932800445   ,118.28216961371231   ,272.9059442912869   ,204.87075623099116   ,-295.72204543322414   ,-500.3151995255069  ,-6.6081564123722085     ,-295.8096417500712  ,          0.0 ,          0.0 ,-295.50807884114     ,-500.52921591045674 ,-295.8096417500712  ,-1091.8469859536808 ,118.28216961371231   ,363.9489955696007    ,204.87075623099116   ,-1.9158969814437505e-06 ,-2.2087892609945536e-05 ,-4.116522429401419e-06  ,      0.0 ,      0.0 ,      0.0 ,-1.70801920636033e-06   ,-2.2295770384294798e-05 ,      0.0 ,-2.4003789091258156e-05 ,1.2408832023753677e-05 ,0.8171873154034062   ,0.49795683580263395     ,-0.004148641299365108   ,-4.171453350228091e-07  ,0.0027216164619101734  ,-40.20287136518564     ,0.0 ,-50.83832059755434    ,-50.83832059755434      ,        0.0 ,        0.0 , 0.0
 0.0 ,0.0 ,           0.0 ,            0.0 ,            0.0 ,            0.0 ,              0.0 ,                   0.0 , 968.0 ,17.66041 ,-28.27095 ,           0.0 ,           0.0 ,       0.0 ,-95.10078      ,-18.76087   ,0.00559821       ,-0.0002804093    ,                 0.0 ,             0.0 ,             0.0 ,                 0.0 ,                 0.0 ,        0.0 ,1.9945555459398685     ,            0.0 ,            0.0 ,            0.0 ,              0.0 ,                   0.0 ,  0.0 ,0.0 , 871.0691830948249   ,1.0                ,0.0 ,-207.2830340318726  ,-413.60002838762597 ,-6.688146018109201      ,-207.00829027055076 ,          0.0 ,          0.0 ,-207.0654754562143  ,-413.81753691571816 ,-207.00829027055076 ,-827.8913526900493  ,119.384839222306     ,275.96377596364096  ,206.78060378011293   ,-300.6819288633899    ,-506.99894846758286 ,-6.688146018109201      ,-300.4072356940796  ,          0.0 ,          0.0 ,-300.4644455837373   ,-507.21645709080735 ,-300.4072356940796  ,-1108.0881391033342 ,119.384839222306     ,369.36272084272434   ,206.78060378011293   ,-3.7926423780492055e-06 ,-4.579690969545161e-05  ,-9.020307799454891e-06  ,      0.0 ,      0.0 ,      0.0 ,-3.3045203846585987e-06 ,-4.628503270422425e-05  ,      0.0 ,-4.958955107894527e-05  ,2.582383991405035e-05  ,0.6328608126811246   ,1.0                     ,-0.0038099327962972584  ,-5.593912435373158e-07  ,0.0                    ,0.0038099353003147284  ,0.0 ,-93.39895009210497    ,-93.39895009210497      ,        0.0 ,        0.0 , 0.0
 0.0 ,0.0 ,           0.0 ,            0.0 ,            0.0 ,            0.0 ,              0.0 ,                   0.0 , 969.0 ,15.70294 ,-28.62769 ,           0.0 ,           0.0 ,       0.0 ,-98.54617      ,-18.77308   ,0.005617443      ,-0.0003895749    ,                 0.0 ,             0.0 ,             0.0 ,                 0.0 ,                 0.0 ,        0.0 ,1.751310348690641      ,            0.0 ,            0.0 ,            0.0 ,              0.0 ,                   0.0 ,  0.0 ,0.0 , 871.9440414939056   ,1.0                ,0.0 ,-209.605988649903   ,-417.5143027739542  ,-6.5289972136230165     ,-209.27398913973414 ,          0.0 ,          0.0 ,-209.39977247264287 ,-417.72046899593124 ,-209.27398913973414 ,-836.3942553878395  ,120.31033822053784   ,278.7980851590911   ,208.38361387039154   ,-306.42865706660774   ,-514.3369960596241  ,-6.5289972136230165     ,-306.0967072049353  ,          0.0 ,          0.0 ,-306.2225157135958   ,-514.5431621921673  ,-306.0967072049353  ,-1126.8624349765475 ,120.31033822053784   ,375.6207783553271    ,208.38361387039154   ,-4.267976330311532e-06  ,-4.5451078745183275e-05 ,-1.009336308247177e-05  ,      0.0 ,      0.0 ,      0.0 ,-3.6532406626999282e-06 ,-4.606581666327321e-05  ,      0.0 ,-4.9719054575941974e-05 ,2.5629211690015538e-05 ,0.7248855083242979   ,0.7467947653143191      ,-0.0020005311084865703  ,2.069928127822569e-06   ,0.0014477175098892977  ,-27.61625422895337     ,0.0 ,-69.20446531040619    ,-69.20446531040619      ,        0.0 ,        0.0 , 0.0
 0.0 ,0.0 ,           0.0 ,            0.0 ,            0.0 ,            0.0 ,              0.0 ,                   0.0 , 970.0 ,13.73584 ,-29.00724 ,           0.0 ,           0.0 ,       0.0 ,-102.1869      ,-18.78856   ,0.00315618       ,-0.0003220213    ,                 0.0 ,             0.0 ,             0.0 ,                 0.0 ,                 0.0 ,        0.0 ,2.2849735079724827     ,            0.0 ,            0.0 ,            0.0 ,              0.0 ,                   0.0 ,  0.0 ,0.0 , 875.0786682090329   ,1.0                ,0.0 ,-212.24007084628562 ,-421.91859990707894 ,-6.1710043418772536     ,-211.80833269334525 ,          0.0 ,          0.0 ,-212.05737915520436 ,-422.1012400647852  ,-211.80833269334525 ,-845.9669519133348  ,121.34087739501669   ,281.98897447199465  ,210.16854147129857   ,-312.9268957619332    ,-522.6053963253758  ,-6.1710043418772536     ,-312.49512911164203 ,          0.0 ,          0.0 ,-312.7442271068761   ,-522.7880649804329  ,-312.49512911164203 ,-1148.027450368475  ,121.34087739501669   ,382.67579938764226   ,210.16854147129857   ,-4.881680744797062e-06  ,-4.206215065636475e-05  ,-9.38203973341003e-06   ,      0.0 ,      0.0 ,      0.0 ,-4.29867393921888e-06   ,-4.264515758979838e-05  ,      0.0 ,-4.6943831648746086e-05 ,2.3513946357158426e-05 ,0.9151165126374218   ,0.22646069043757888     ,-0.0005053819259615463  ,1.0473438956945058e-06  ,0.003899554234053785   ,-80.4457245642457      ,0.0 ,-20.240614145587493   ,-20.240614145587493     ,        0.0 ,        0.0 , 0.0
 0.0 ,0.0 ,           0.0 ,            0.0 ,            0.0 ,            0.0 ,              0.0 ,                   0.0 , 971.0 ,11.74933 ,-29.29051 ,           0.0 ,           0.0 ,       0.0 ,-104.8339      ,-18.80712   ,0.002626056      ,-0.0002727851    ,                 0.0 ,             0.0 ,             0.0 ,                 0.0 ,                 0.0 ,        0.0 ,1.9850120302717462     ,            0.0 ,            0.0 ,            0.0 ,              0.0 ,                   0.0 ,  0.0 ,0.0 , 874.9699674690821   ,1.0                ,0.0 ,-214.62684714270057 ,-426.3745581089659  ,-5.643561853892077      ,-214.20132422334902 ,          0.0 ,          0.0 ,-214.47440710064308 ,-426.52699964982037 ,-214.20132422334902 ,-855.2027048680784  ,122.50758317076286   ,285.06756878895845  ,212.18932453504084   ,-317.9980778434068    ,-529.745764202735   ,-5.643561853892077      ,-317.5725303171181  ,          0.0 ,          0.0 ,-317.8456378013493   ,-529.8982303505267  ,-317.5725303171181  ,-1165.3162185795402 ,122.50758317076286   ,388.4387994896647    ,212.18932453504084   ,-4.005722920242771e-06  ,-4.223764099107517e-05  ,-9.249083951608202e-06  ,      0.0 ,      0.0 ,      0.0 ,-3.4531298960695067e-06 ,-4.2790232783432486e-05 ,      0.0 ,-4.6243365143868434e-05 ,2.3792393472010794e-05 ,1.0                  ,-0.00379613175965923    ,-3.733190962996531e-06  ,0.0                     ,0.0037961349764872067  ,-103.3712356294391     ,0.0 ,0.0                   ,0.0                     ,        0.0 ,        0.0 , 0.0
 0.0 ,0.0 ,           0.0 ,            0.0 ,            0.0 ,            0.0 ,              0.0 ,                   0.0 , 972.0 ,9.769894 ,-29.55004 ,           0.0 ,           0.0 ,       0.0 ,-107.203       ,-18.82973   ,0.002149644      ,-0.0002700446    ,                 0.0 ,             0.0 ,             0.0 ,                 0.0 ,                 0.0 ,        0.0 ,2.5176852225872475     ,            0.0 ,            0.0 ,            0.0 ,              0.0 ,                   0.0 ,  0.0 ,0.0 , 874.0579563206967   ,1.0                ,0.0 ,-217.11759365921606 ,-431.2275661781864  ,-4.880643368354939      ,-216.74778595105127 ,          0.0 ,          0.0 ,-217.0060448646728  ,-431.3391642709686  ,-216.74778595105127 ,-865.092895255073   ,123.81999567068343   ,288.3642980066438   ,214.46249658944276   ,-322.8454743595462    ,-536.9554468785166  ,-4.880643368354939      ,-322.47566665138135 ,          0.0 ,          0.0 ,-322.7339255650029   ,-537.0670449712986  ,-322.47566665138135 ,-1182.2762892929663 ,123.81999567068343   ,394.09222924035447   ,214.46249658944276   ,-2.7055252451040315e-06 ,-4.3563817289465884e-05 ,-9.567091043214981e-06  ,      0.0 ,      0.0 ,      0.0 ,-2.15186273752825e-06   ,-4.4117477772338834e-05 ,      0.0 ,-4.62693395076185e-05   ,2.4879846163843254e-05 ,1.0                  ,-0.0023449144217260656  ,-2.4820095243229224e-06 ,0.0                     ,0.002344920480115539   ,-105.72788071716812    ,0.0 ,0.0                   ,0.0                     ,        0.0 ,        0.0 , 0.0
 0.0 ,0.0 ,           0.0 ,            0.0 ,            0.0 ,            0.0 ,              0.0 ,                   0.0 , 973.0 ,7.802431 ,-29.80661 ,           0.0 ,           0.0 ,       0.0 ,-109.4974      ,-18.85687   ,-0.0002264109    ,-0.0006034692    ,                 0.0 ,             0.0 ,             0.0 ,                 0.0 ,                 0.0 ,        0.0 ,2.9925067684353865     ,            0.0 ,            0.0 ,            0.0 ,              0.0 ,                   0.0 ,  0.0 ,0.0 , 875.0773615446574   ,1.0                ,0.0 ,-220.04539989044895 ,-436.3011855711983  ,-3.579546159325287      ,-219.5485807881388  ,          0.0 ,          0.0 ,-219.98593384905703 ,-436.3606516125902  ,-219.5485807881388  ,-875.8951166244476  ,125.05055591537413   ,291.9650055414826   ,216.59393758765543   ,-328.34769501142966   ,-544.603480692179   ,-3.579546159325287      ,-327.85082553445795 ,          0.0 ,          0.0 ,-328.2882289700378   ,-544.662946733571   ,-327.85082553445795 ,-1200.8019523620515 ,125.05055591537413   ,400.2673502878017    ,216.59393758765543   ,-2.079661320647323e-06  ,-4.11102054107296e-05   ,-8.25783199985052e-06   ,      0.0 ,      0.0 ,      0.0 ,-1.6468251733947747e-06 ,-4.154303843289988e-05  ,      0.0 ,-4.318986468708876e-05  ,2.353080569842406e-05  ,0.8139466782989171   ,0.5025011258695349      ,-0.00185890882324839    ,-2.7297963622183154e-06 ,0.0012454929058697284  ,-58.15825635557033     ,0.0 ,-50.14217244011483    ,-50.14217244011483      ,        0.0 ,        0.0 , 0.0
 0.0 ,0.0 ,           0.0 ,            0.0 ,            0.0 ,            0.0 ,              0.0 ,                   0.0 , 974.0 ,5.845303 ,-30.06265 ,           0.0 ,           0.0 ,       0.0 ,-111.7418      ,-18.88847   ,-0.002339638     ,0.0001326095     ,                 0.0 ,             0.0 ,             0.0 ,                 0.0 ,                 0.0 ,        0.0 ,3.4888340660847224     ,            0.0 ,            0.0 ,            0.0 ,              0.0 ,                   0.0 ,  0.0 ,0.0 , 876.0700988283174   ,1.0                ,0.0 ,-223.40323555524046 ,-442.317731145802   ,-2.053025948929693      ,-222.80329225212623 ,          0.0 ,          0.0 ,-223.38370781915205 ,-442.3371593077054  ,-222.80329225212623 ,-888.524209643947   ,126.58081394500289   ,296.1747199696367   ,219.24435172555997   ,-334.25614801281745   ,-553.170643603379   ,-2.053025948929693      ,-333.6562545488515  ,          0.0 ,          0.0 ,-334.2366705416923   ,-553.1900717652823  ,-333.6562545488515  ,-1221.082943193711  ,126.58081394500289   ,407.0276324272138    ,219.24435172555997   ,-1.0311209845354253e-06 ,-3.777252650666431e-05  ,-6.651022289750864e-06  ,      0.0 ,      0.0 ,      0.0 ,-7.321393828534467e-07  ,-3.807150806213333e-05  ,      0.0 ,-3.880364690248123e-05  ,2.1776986949435117e-05 ,0.6315895374568428   ,1.0                     ,-0.0041518151086522735  ,-6.9697495941404606e-06 ,0.0                    ,0.004151821612343024   ,0.0 ,-110.85291237241398   ,-110.85291237241398     ,        0.0 ,        0.0 , 0.0
 0.0 ,0.0 ,           0.0 ,            0.0 ,            0.0 ,            0.0 ,              0.0 ,                   0.0 , 975.0 ,3.894335 ,-30.31946 ,           0.0 ,           0.0 ,       0.0 ,-113.9564      ,-18.92382   ,-0.01621449      ,-0.003046505     ,                 0.0 ,             0.0 ,             0.0 ,                 0.0 ,                 0.0 ,        0.0 ,2.4886537191950735     ,            0.0 ,            0.0 ,            0.0 ,              0.0 ,                   0.0 ,  0.0 ,0.0 , 877.0624703994299   ,1.0                ,0.0 ,-227.12946786676358 ,-449.01078986704755 ,0.447115309691119       ,-226.35818787454483 ,          0.0 ,          0.0 ,-227.12830963864423 ,-449.0119978376138  ,-226.35818787454483 ,-902.4984949122653  ,128.32754975819398   ,300.83286481181455  ,222.26981373015272   ,-340.417729928309     ,-562.2991021478617  ,0.447115309691119       ,-339.64645041291203 ,          0.0 ,          0.0 ,-340.41657217701146  ,-562.3002598991592  ,-339.64645041291203 ,-1242.3632289703455 ,128.32754975819398   ,414.12107756945045   ,222.26981373015272   ,1.5361953142013854e-06  ,-3.772128148974275e-05  ,-7.20815118839451e-06   ,      0.0 ,      0.0 ,      0.0 ,1.8758228204513895e-06  ,-3.8060909405773e-05    ,      0.0 ,-3.6185086705295735e-05 ,2.2569295653732064e-05 ,0.6318385372824917   ,1.0                     ,-0.0023560876774663658  ,-1.7503081350847412e-06 ,0.0                    ,0.0023560891947293954  ,0.0 ,-113.28821275763597   ,-113.28821275763597     ,        0.0 ,        0.0 , 0.0
 0.0 ,0.0 ,           0.0 ,            0.0 ,            0.0 ,            0.0 ,              0.0 ,                   0.0 , 976.0 ,1.946326 ,-30.57664 ,           0.0 ,           0.0 ,       0.0 ,-116.1505      ,-18.96159   ,-0.07313217      ,0.00411998       ,                 0.0 ,             0.0 ,             0.0 ,                 0.0 ,                 0.0 ,        0.0 ,0.004755431173352753   ,            0.0 ,            0.0 ,            0.0 ,              0.0 ,                   0.0 ,  0.0 ,0.0 , 878.0548771393524   ,1.0                ,0.0 ,-232.38327034283344 ,-461.62677116127793 ,4.39499832784089        ,-232.49837828909767 ,          0.0 ,          0.0 ,-232.29830119631782 ,-461.71174078333655 ,-232.49837828909767 ,-926.508419793209   ,132.39432775385512   ,308.83614039891415  ,229.31375406237146   ,-348.52230016795227   ,-577.7657521637066  ,4.39499832784089        ,-348.63730858975964 ,          0.0 ,          0.0 ,-348.43728079521304  ,-577.8507213102221  ,-348.63730858975964 ,-1274.9253097441083 ,132.39432775385512   ,424.9751199978093    ,229.31375406237146   ,1.868118826708722e-08   ,-1.8052781814684522e-07 ,-4.3058950335614266e-08 ,      0.0 ,      0.0 ,      0.0 ,2.098142361365616e-08   ,-1.828280677597077e-07  ,      0.0 ,-1.61846629879758e-07   ,1.1210458203492954e-07 ,0.8183992562865756   ,0.48720277320371635     ,-0.009660332295106619   ,-0.0015139881585231026  ,0.01056293143370049    ,-54.215612111298924    ,0.0 ,-61.91439699401365    ,-61.91439699401365      ,        0.0 ,        0.0 , 0.0
 0.0 ,0.0 ,           0.0 ,            0.0 ,            0.0 ,            0.0 ,              0.0 ,                   0.0 , 977.0 ,1.963813 ,-32.46139 ,           0.0 ,           0.0 ,       0.0 ,-134.9621      ,-18.96518   ,-0.06090114      ,-0.0004169869    ,                 0.0 ,             0.0 ,             0.0 ,                 0.0 ,                 0.0 ,        0.0 ,3.4845801288637896     ,            0.0 ,            0.0 ,            0.0 ,              0.0 ,                   0.0 ,  0.0 ,0.0 , 879.8272117400309   ,1.0                ,0.0 ,-236.3675665953673  ,-474.41006527668543 ,3.035964907288134       ,-238.01030149838277 ,          0.0 ,          0.0 ,-236.32811625237707 ,-474.44946630007166 ,-238.01030149838277 ,-948.7878832456353  ,136.99691466734114   ,316.26262756334654  ,237.28565950556862   ,-371.0807736767702    ,-609.1233211220966  ,3.035964907288134       ,-372.7235573437939  ,          0.0 ,          0.0 ,-371.0413726533841   ,-609.1627221454828  ,-372.7235573437939  ,-1352.9279027666619 ,136.99691466734114   ,450.97588396435344   ,237.28565950556862   ,1.4798850130001309e-05  ,-4.135252061282658e-05  ,1.068511732384892e-06   ,      0.0 ,      0.0 ,      0.0 ,1.4804015562333942e-05  ,-4.1357693030423404e-05 ,      0.0 ,-2.655367845448154e-05  ,2.916248504992375e-05  ,0.8213829006904638   ,0.5039617447600804      ,-0.0013616517440090009  ,-1.7462441251203148e-05 ,0.002842215785205891   ,-70.67723111543926     ,0.0 ,-64.03466354537986    ,-64.03466354537986      ,        0.0 ,        0.0 , 0.0
 0.0 ,0.0 ,           0.0 ,            0.0 ,            0.0 ,            0.0 ,              0.0 ,                   0.0 , 978.0 ,1.972195 ,-34.34599 ,           0.0 ,           0.0 ,       0.0 ,-153.783       ,-18.9677    ,-0.03456695      ,-0.001434727     ,                 0.0 ,             0.0 ,             0.0 ,                 0.0 ,                 0.0 ,        0.0 ,2.9931934502926607     ,            0.0 ,            0.0 ,            0.0 ,              0.0 ,                   0.0 ,  0.0 ,0.0 , 880.9850400317591   ,1.0                ,0.0 ,-242.72106753617925 ,-487.1680719279341  ,1.9695851088709386      ,-244.32854236662234 ,          0.0 ,          0.0 ,-242.70288738179215 ,-487.18630142019674 ,-244.32854236662234 ,-974.2177318369124  ,140.68583558556435   ,324.7392441725225   ,243.6750835195014    ,-396.2369560837589    ,-640.683961143815   ,1.9695851088709386      ,-397.84443158250326 ,          0.0 ,          0.0 ,-396.2187765976731   ,-640.7021906360776  ,-397.84443158250326 ,-1434.7653954129792 ,140.68583558556435   ,478.25513338840346   ,243.6750835195014    ,1.4013590194525128e-05  ,-4.1227457092651615e-05 ,1.1025452270468747e-06  ,      0.0 ,      0.0 ,      0.0 ,1.4027527415655623e-05  ,-4.12413953270246e-05   ,      0.0 ,-2.7213868911245444e-05 ,2.8766508069440308e-05 ,0.649213830684567    ,0.9932784737285975      ,-0.0030822958802021556  ,-7.462665994236149e-07  ,3.851321519550232e-05  ,-0.954642280392562     ,0.0 ,-152.55816465797346   ,-152.55816465797346     ,        0.0 ,        0.0 , 0.0
 0.0 ,0.0 ,           0.0 ,            0.0 ,            0.0 ,            0.0 ,              0.0 ,                   0.0 , 979.0 ,1.971843 ,-36.23065 ,           0.0 ,           0.0 ,       0.0 ,-172.6122      ,-18.96943   ,-0.02184299      ,-0.0005406834    ,                 0.0 ,             0.0 ,             0.0 ,                 0.0 ,                 0.0 ,        0.0 ,3.5011601346700534     ,            0.0 ,            0.0 ,            0.0 ,              0.0 ,                   0.0 ,  0.0 ,0.0 , 882.1476103472439   ,1.0                ,0.0 ,-250.01579178181578 ,-500.3953333904242  ,1.6992181714501577      ,-251.11656302220206 ,          0.0 ,          0.0 ,-250.00157690434688 ,-500.40954826789306 ,-251.11656302220206 ,-1001.5278361881728 ,144.25243748659912   ,333.8425953573864   ,249.8525845894933    ,-422.3878135376987    ,-672.7674050302935  ,1.6992181714501577      ,-423.48863410932864 ,          0.0 ,          0.0 ,-422.37364854421634  ,-672.781570023776   ,-423.48863410932864 ,-1518.6439574746291 ,144.25243748659912   ,506.2146171132694    ,249.8525845894933    ,9.539639526356366e-06   ,-3.4452559170802524e-05 ,2.4396189357659034e-06  ,      0.0 ,      0.0 ,      0.0 ,9.59491161375381e-06    ,-3.450782529887183e-05  ,      0.0 ,-2.4912913207500984e-05 ,2.3234631597140878e-05 ,0.82229034034543     ,0.4982857834495524      ,-0.0012588492124057753  ,-3.0114265705111083e-07 ,0.0028743512205014533  ,-81.59981465221651     ,0.0 ,-90.77094855743928    ,-90.77094855743928      ,        0.0 ,        0.0 , 0.0
 0.0 ,0.0 ,           0.0 ,            0.0 ,            0.0 ,            0.0 ,              0.0 ,                   0.0 , 980.0 ,1.96395  ,-38.11548 ,           0.0 ,           0.0 ,       0.0 ,-191.4497      ,-18.97051   ,-0.01273345      ,0.0002947534     ,                 0.0 ,             0.0 ,             0.0 ,                 0.0 ,                 0.0 ,        0.0 ,1.5227314624010995     ,            0.0 ,            0.0 ,            0.0 ,              0.0 ,                   0.0 ,  0.0 ,0.0 , 818.0587912360659   ,1.0                ,0.0 ,-257.56162540288585 ,-514.0002754461957  ,1.7093240330432262      ,-258.1076203593262  ,          0.0 ,          0.0 ,-257.5471997761618  ,-514.0147010729197  ,-258.1076203593262  ,-1029.6696228204576 ,147.91024487026874   ,343.22315765512866  ,256.1880196908147    ,-448.7665990848344    ,-705.2051992730726  ,1.7093240330432262      ,-449.3126441862032  ,          0.0 ,          0.0 ,-448.75217345811024  ,-705.2196747548683  ,-449.3126441862032  ,-1603.284788369057  ,147.91024487026874   ,534.4281313370773    ,256.1880196908147    ,5.708875214209154e-06   ,-2.8242989084989535e-05 ,4.434334408722431e-06   ,      0.0 ,      0.0 ,      0.0 ,5.966482646564272e-06   ,-2.8500595010733692e-05 ,      0.0 ,-2.2534116822418883e-05 ,1.84648077102247e-05   ,0.8206417595316409   ,0.5055398462012252      ,-0.0018574487611075269  ,-8.342531705261567e-08  ,0.0010711175010711007  ,-98.92900901973007     ,0.0 ,-92.27410718569065    ,-92.27410718569065      ,        0.0 ,        0.0 , 0.0
 0.0 ,0.0 ,           0.0 ,            0.0 ,            0.0 ,            0.0 ,              0.0 ,                   0.0 , 981.0 ,3.928863 ,-38.06417 ,           0.0 ,           0.0 ,       0.0 ,-191.225       ,-18.94168   ,-0.02352636      ,-0.0002011815    ,                 0.0 ,             0.0 ,             0.0 ,                 0.0 ,                 0.0 ,        0.0 ,3.9669423775882175     ,            0.0 ,            0.0 ,            0.0 ,              0.0 ,                   0.0 ,  0.0 ,0.0 , 884.8578875419631   ,1.0                ,0.0 ,-257.2400169110923  ,-513.1554677290338  ,3.3138086281760044      ,-257.548214510127   ,          0.0 ,          0.0 ,-257.19491363193447 ,-513.2005216617481  ,-257.548214510127   ,-1027.9440443644942 ,147.70312963725496   ,342.64789948623866  ,255.82935927306912   ,-447.98545661553885   ,-703.9009074334804  ,3.3138086281760044      ,-448.2937040416892  ,          0.0 ,          0.0 ,-447.94035333638095  ,-703.9459613661945  ,-448.2937040416892  ,-1600.179971742239  ,147.70312963725496   ,533.3933893635694    ,255.82935927306912   ,3.807886047935357e-06   ,-3.119613221184719e-05  ,7.402243157121362e-06   ,      0.0 ,      0.0 ,      0.0 ,4.311220502740472e-06   ,-3.1699469617825485e-05 ,      0.0 ,-2.7388244175633925e-05 ,1.9678101137248123e-05 ,0.8233123501536977   ,0.4969150389182258      ,-0.0012613848117795877  ,-2.95842271070049e-07   ,0.0013565390550357216  ,-100.34743649997462    ,0.0 ,-90.39675191704272    ,-90.39675191704272      ,        0.0 ,        0.0 , 0.0
 0.0 ,0.0 ,           0.0 ,            0.0 ,            0.0 ,            0.0 ,              0.0 ,                   0.0 , 982.0 ,5.89575  ,-38.01416 ,           0.0 ,           0.0 ,       0.0 ,-191.0007      ,-18.9141    ,-0.02796703      ,-0.0002077233    ,                 0.0 ,             0.0 ,             0.0 ,                 0.0 ,                 0.0 ,        0.0 ,0.5262055442585548     ,            0.0 ,            0.0 ,            0.0 ,              0.0 ,                   0.0 ,  0.0 ,0.0 , 885.8105676882783   ,0.9999999999999999 ,0.0 ,-256.3295022820681  ,-510.79152045904027 ,4.2262831109315755      ,-256.510618000029   ,          0.0 ,          0.0 ,-256.25796998641795 ,-510.86310213740336 ,-256.510618000029   ,-1023.6316908925439 ,146.92348912536409   ,341.2105307090393   ,254.4790077802166    ,-446.9120234215336    ,-701.3740415985058  ,4.2262831109315755      ,-447.0930897567815  ,          0.0 ,          0.0 ,-446.84044174317046  ,-701.4455738941558  ,-447.0930897567815  ,-1595.3795968743907 ,146.92348912536409   ,531.793051464158     ,254.4790077802166    ,9.453880150572186e-08   ,-1.672754357968864e-05  ,6.896228283688156e-06   ,      0.0 ,      0.0 ,      0.0 ,7.750567983027962e-07   ,-1.7408062448370246e-05 ,      0.0 ,-1.663300517242953e-05  ,1.0282022356988384e-05 ,0.9970983549923534   ,-4.513618817343396e-05  ,-0.0006196365820439339  ,-1.0106225838269818e-08 ,0.008165111830359784   ,-189.12534266679788    ,0.0 ,-1.4571087729287504   ,-1.4571087729287504     ,        0.0 ,        0.0 , 0.0
 0.0 ,0.0 ,           0.0 ,            0.0 ,            0.0 ,            0.0 ,              0.0 ,                   0.0 , 983.0 ,7.866144 ,-37.96637 ,           0.0 ,           0.0 ,       0.0 ,-190.7812      ,-18.88825   ,-0.02769759      ,-0.0002513267    ,                 0.0 ,             0.0 ,             0.0 ,                 0.0 ,                 0.0 ,        0.0 ,1.9906715647144682     ,            0.0 ,            0.0 ,            0.0 ,              0.0 ,                   0.0 ,  0.0 ,0.0 , 886.7439400496805   ,1.0                ,0.0 ,-254.9335763348676  ,-507.2639516618667  ,3.771107659184925       ,-254.77621618570112 ,          0.0 ,          0.0 ,-254.87713477237423 ,-507.3203924250363  ,-254.77621618570112 ,-1016.9737934828026 ,145.77733241748103   ,338.9912974501923   ,252.49377294092724   ,-445.2998380622879    ,-697.6302133892868  ,3.771107659184925       ,-445.1424779131214  ,          0.0 ,          0.0 ,-445.2433972991183   ,-697.6866541524565  ,-445.1424779131214  ,-1588.0724806642702 ,145.77733241748103   ,529.3575102101473    ,252.49377294092724   ,-9.490795425437463e-07  ,-1.6767819747223997e-05 ,4.158365588992735e-06   ,      0.0 ,      0.0 ,      0.0 ,-6.80360778694505e-07   ,-1.7036540501744803e-05 ,      0.0 ,-1.771690227577509e-05  ,9.645649766456602e-06  ,0.6424318785253741   ,1.0                     ,-0.007284931822088      ,-0.0003001324906587137  ,0.0                    ,0.007292826808561487   ,0.0 ,-190.3662625267441    ,-190.3662625267441      ,        0.0 ,        0.0 , 0.0
 0.0 ,0.0 ,           0.0 ,            0.0 ,            0.0 ,            0.0 ,              0.0 ,                   0.0 , 984.0 ,9.837369 ,-37.92446 ,           0.0 ,           0.0 ,       0.0 ,-190.5993      ,-18.86452   ,-0.02079828      ,-0.0003287679    ,                 0.0 ,             0.0 ,             0.0 ,                 0.0 ,                 0.0 ,        0.0 ,1.9936707602202808     ,            0.0 ,            0.0 ,            0.0 ,              0.0 ,                   0.0 ,  0.0 ,0.0 , 887.6828078174917   ,0.9999999999999999 ,0.0 ,-252.8964799435151  ,-502.6869541385322  ,2.4373457248590062      ,-252.46713486741857 ,          0.0 ,          0.0 ,-252.87226239438337 ,-502.71112189087813 ,-252.46713486741857 ,-1008.0506675936517 ,144.36170495240745   ,336.0168234650821   ,250.04185685633402   ,-442.90446214866733   ,-692.6949851011182  ,2.4373457248590062      ,-442.4751170725708  ,          0.0 ,          0.0 ,-442.8803438766454   ,-692.7191535763543  ,-442.4751170725708  ,-1578.074517237199  ,144.36170495240745   ,526.0249042244538    ,250.04185685633402   ,-7.674085649701467e-07  ,-1.7709801775770497e-05 ,5.1811873034262505e-06  ,      0.0 ,      0.0 ,      0.0 ,-3.790450838309121e-07  ,-1.8098163793064732e-05 ,      0.0 ,-1.8477212814756844e-05 ,1.034179673174023e-05  ,0.8183790339589007   ,0.5039557913967448      ,-0.006035820481158969   ,-0.000888349777060551   ,0.0012409694925091853  ,-98.87404245714382     ,0.0 ,-91.12793814711621    ,-91.12793814711621      ,        0.0 ,        0.0 , 0.0
 0.0 ,0.0 ,           0.0 ,            0.0 ,            0.0 ,            0.0 ,              0.0 ,                   0.0 , 985.0 ,11.80222 ,-37.90221 ,           0.0 ,           0.0 ,       0.0 ,-190.5904      ,-18.84317   ,-0.01411878      ,-0.0001190475    ,                 0.0 ,             0.0 ,             0.0 ,                 0.0 ,                 0.0 ,        0.0 ,2.9910072163592467     ,            0.0 ,            0.0 ,            0.0 ,              0.0 ,                   0.0 ,  0.0 ,0.0 , 888.4734800131096   ,1.0                ,0.0 ,-251.32520850594904 ,-499.4569147185697  ,1.0221050121050543      ,-250.81344465468933 ,          0.0 ,          0.0 ,-251.32042386831552 ,-499.46169935620327 ,-250.81344465468933 ,-1001.5956175177046 ,143.41121422516193   ,333.86520602148005  ,248.39549375006024   ,-440.7074592491334    ,-688.8391152765219  ,1.0221050121050543      ,-440.19569539787375 ,          0.0 ,          0.0 ,-440.70272442626765  ,-688.8439500993877  ,-440.19569539787375 ,-1569.742619191561  ,143.41121422516193   ,523.2474065794322    ,248.39549375006024   ,-2.623587538039992e-06  ,-3.3663254561608236e-05 ,5.824690037329394e-06   ,      0.0 ,      0.0 ,      0.0 ,-2.344345328856009e-06  ,-3.394249408078297e-05  ,      0.0 ,-3.628683814443293e-05  ,1.8972905182906163e-05 ,0.8192977332296262   ,0.5006040436581835      ,-0.001848388110144486   ,-4.850272714430366e-07  ,0.0012482785541102614  ,-99.54778304992318     ,0.0 ,-89.83261956587722    ,-89.83261956587722      ,        0.0 ,        0.0 , 0.0
 0.0 ,0.0 ,           0.0 ,            0.0 ,            0.0 ,            0.0 ,              0.0 ,                   0.0 , 986.0 ,13.74457 ,-37.93326 ,           0.0 ,           0.0 ,       0.0 ,-191.0891      ,-18.82435   ,-0.009390013     ,0.0002151957     ,                 0.0 ,             0.0 ,             0.0 ,                 0.0 ,                 0.0 ,        0.0 ,2.427620621346124      ,            0.0 ,            0.0 ,            0.0 ,              0.0 ,                   0.0 ,  0.0 ,0.0 , 892.6767011396009   ,1.0                ,0.0 ,-249.58082510886655 ,-496.63615106626173 ,0.0702036207974058      ,-249.22967456988837 ,          0.0 ,          0.0 ,-249.57413363565217 ,-496.64284253947613 ,-249.22967456988837 ,-995.4466979418877  ,142.7447860918105    ,331.81555063882183  ,247.2412393969535    ,-439.2340805090818    ,-686.2894052950282  ,0.0702036207974058      ,-438.8829299701037  ,          0.0 ,          0.0 ,-439.22748786441866  ,-686.2960979396914  ,-438.8829299701037  ,-1564.4068606281874 ,142.7447860918105    ,521.4688048675883    ,247.2412393969535    ,-2.480913241677136e-06  ,-3.567541889926837e-05  ,4.774988360109334e-06   ,      0.0 ,      0.0 ,      0.0 ,-2.2670116554006784e-06 ,-3.588932339214828e-05  ,      0.0 ,-3.815633301204703e-05  ,2.0108703591080435e-05 ,0.995781957424344    ,0.009409250836620944    ,-4.291358828700483e-05  ,-1.1321748851666055e-08 ,0.002305236754578918   ,-187.55629438105402    ,0.0 ,-2.096917879248717    ,-2.096917879248717      ,        0.0 ,        0.0 , 0.0
 0.0 ,0.0 ,           0.0 ,            0.0 ,            0.0 ,            0.0 ,              0.0 ,                   0.0 , 987.0 ,15.63573 ,-38.09077 ,           0.0 ,           0.0 ,       0.0 ,-192.826       ,-18.80817   ,-0.004391212     ,-0.0006332136    ,                 0.0 ,             0.0 ,             0.0 ,                 0.0 ,                 0.0 ,        0.0 ,0.555220987126082      ,            0.0 ,            0.0 ,            0.0 ,              0.0 ,                   0.0 ,  0.0 ,0.0 , 886.1481711822433   ,1.0                ,0.0 ,-248.33571476795476 ,-494.2887037779483  ,-1.1476152360015728     ,-247.92369839585058 ,          0.0 ,          0.0 ,-248.32971419250686 ,-494.2946535360942  ,-247.92369839585058 ,-990.5479157856794  ,142.12527498815845   ,330.1827056472512   ,246.16825694182222   ,-440.41012583503107   ,-686.3631656623265  ,-1.1476152360015728     ,-439.9981602802289  ,          0.0 ,          0.0 ,-440.4042252595832   ,-686.3691154204726  ,-439.9981602802289  ,-1566.7715489869083 ,142.12527498815845   ,522.2571675316295    ,246.16825694182222   ,-1.655818750582945e-06  ,-1.743871708667947e-05  ,1.2213488199413467e-06  ,      0.0 ,      0.0 ,      0.0 ,-1.6285348662025154e-06 ,-1.7466004236345546e-05 ,      0.0 ,-1.9094539904472537e-05 ,9.649159477839455e-06  ,1.0                  ,-0.004946568844531305   ,-0.00024371635793156505 ,0.0                     ,0.004954260551353692   ,-192.0744618843783     ,0.0 ,0.0                   ,0.0                     ,        0.0 ,        0.0 , 0.0
 0.0 ,0.0 ,           0.0 ,            0.0 ,            0.0 ,            0.0 ,              0.0 ,                   0.0 , 988.0 ,17.53038 ,-38.0948  ,           0.0 ,           0.0 ,       0.0 ,-193.0101      ,-18.79379   ,-0.001739807     ,-0.0003658495    ,                 0.0 ,             0.0 ,             0.0 ,                 0.0 ,                 0.0 ,        0.0 ,2.9751488405045503     ,            0.0 ,            0.0 ,            0.0 ,              0.0 ,                   0.0 ,  0.0 ,0.0 , 891.2413138262119   ,1.0                ,0.0 ,-247.58435727453545 ,-493.58030215151564 ,-2.059908013366356      ,-247.41248242628947 ,          0.0 ,          0.0 ,-247.5667236211248  ,-493.5979352784852  ,-247.41248242628947 ,-988.5769918949261  ,142.09074853186294   ,329.5256807929273   ,246.1084080657326    ,-439.0779950140719    ,-685.0739897013765  ,-2.059908013366356      ,-438.9061699761503  ,          0.0 ,          0.0 ,-439.06036188710243  ,-685.0916228283461  ,-438.9061699761503  ,-1563.0580057870666 ,142.09074853186294   ,521.0194185324638    ,246.1084080657326    ,-2.1864089496918384e-06 ,-3.662822850598279e-05  ,-6.521820826397721e-07  ,      0.0 ,      0.0 ,      0.0 ,-2.1826036272148747e-06 ,-3.663203268587251e-05  ,      0.0 ,-3.881464059679096e-05  ,2.0561914857950987e-05 ,0.8198001432036149   ,0.500622558400565       ,-0.0018502931305132894  ,-3.0970854278661397e-07 ,0.0012742769603943536  ,-100.02582394059749    ,0.0 ,-91.46601608263693    ,-91.46601608263693      ,        0.0 ,        0.0 , 0.0
 0.0 ,0.0 ,           0.0 ,            0.0 ,            0.0 ,            0.0 ,              0.0 ,                   0.0 , 989.0 ,19.44702 ,-38.03923 ,           0.0 ,           0.0 ,       0.0 ,-192.5829      ,-18.78094   ,-0.004307871     ,1.89776e-05      ,                 0.0 ,             0.0 ,             0.0 ,                 0.0 ,                 0.0 ,        0.0 ,2.9599899801961715     ,            0.0 ,            0.0 ,            0.0 ,              0.0 ,                   0.0 ,  0.0 ,0.0 , 890.8668364495334   ,1.0                ,0.0 ,-246.59583437808948 ,-492.1533652289521  ,-2.3899539743452456     ,-246.55746431069628 ,          0.0 ,          0.0 ,-246.57086931243626 ,-492.17832885969096 ,-246.55746431069628 ,-985.3065156144976  ,141.80539976697995   ,328.435554059694    ,245.61413748278855   ,-437.61813301177153   ,-683.1757624277197  ,-2.3899539743452456     ,-437.579861509464   ,          0.0 ,          0.0 ,-437.593218511705    ,-683.200727493373   ,-437.579861509464   ,-1558.3734612536987 ,141.80539976697995   ,519.4579021277896    ,245.61413748278855   ,-2.0868327496557346e-06 ,-3.7104707450737656e-05 ,-2.1637917371381802e-06 ,      0.0 ,      0.0 ,      0.0 ,-2.025890428081447e-06  ,-3.716564765574441e-05  ,      0.0 ,-3.919153888085129e-05  ,2.0907157883936307e-05 ,0.9948900187311879   ,0.011303075240371519    ,-8.508217053078114e-05  ,-5.507395159511238e-06  ,0.003046068704568506   ,-188.11988671652094    ,0.0 ,-2.9024257392877253   ,-2.9024257392877253     ,        0.0 ,        0.0 , 0.0
 0.0 ,0.0 ,           0.0 ,            0.0 ,            0.0 ,            0.0 ,              0.0 ,                   0.0 , 990.0 ,21.39042 ,-37.97074 ,           0.0 ,           0.0 ,       0.0 ,-192.0128      ,-18.76946   ,-0.002689545     ,-0.0001276085    ,                 0.0 ,             0.0 ,             0.0 ,                 0.0 ,                 0.0 ,        0.0 ,0.5247450005257037     ,            0.0 ,            0.0 ,            0.0 ,              0.0 ,                   0.0 ,  0.0 ,0.0 , 891.8853829933626   ,1.0                ,0.0 ,-245.38034992046394 ,-490.0288860375147  ,-2.8689489232427388     ,-245.31390202888036 ,          0.0 ,          0.0 ,-245.34417282063936 ,-490.0650145027364  ,-245.31390202888036 ,-980.7230899487712  ,141.29840504948544   ,326.9076804380561   ,244.73597707797651   ,-436.45786844291524   ,-681.106403450863   ,-2.8689489232427388     ,-436.39142055133163 ,          0.0 ,          0.0 ,-436.4217399776937   ,-681.1425816597907  ,-436.39142055133163 ,-1553.9557382649919 ,141.29840504948544   ,517.9851978514043    ,244.73597707797651   ,-7.529391214635471e-07  ,-2.025734910747236e-05  ,-1.8490580001140084e-06 ,      0.0 ,      0.0 ,      0.0 ,-7.069842438104542e-07  ,-2.030330639590267e-05  ,      0.0 ,-2.1010290148241212e-05 ,1.1523527136063073e-05 ,0.8189019627329974   ,0.5074588232814138      ,-0.0029948366926670768  ,-0.000190931174682667   ,0.0010692679095688858  ,-88.22805060477586     ,0.0 ,-102.84646530912737   ,-102.84646530912737     ,        0.0 ,        0.0 , 0.0
 0.0 ,0.0 ,           0.0 ,            0.0 ,            0.0 ,            0.0 ,              0.0 ,                   0.0 , 991.0 ,23.35682 ,-37.90343 ,           0.0 ,           0.0 ,       0.0 ,-191.4419      ,-18.75924   ,-0.0003624245    ,0.0001158504     ,                 0.0 ,             0.0 ,             0.0 ,                 0.0 ,                 0.0 ,        0.0 ,2.464230881110581      ,            0.0 ,            0.0 ,            0.0 ,              0.0 ,                   0.0 ,  0.0 ,0.0 , 895.2182771002006   ,1.0                ,0.0 ,-244.69479894980486 ,-489.05201148236597 ,-3.341782238642767      ,-244.6513929841618  ,          0.0 ,          0.0 ,-244.6486244485816  ,-489.0981369083786  ,-244.6513929841618  ,-978.3981532940868  ,141.1322050970735    ,326.1327014062921   ,244.4481289945506    ,-434.2924248896304    ,-678.6496382247351  ,-3.341782238642767      ,-434.24901972653106 ,          0.0 ,          0.0 ,-434.24625119095083  ,-678.6957628482041  ,-434.24901972653106 ,-1547.1910846904755 ,141.1322050970735    ,515.7303281486613    ,244.4481289945506    ,-7.338469997501376e-07  ,-4.078164517615804e-05  ,-4.024974806272432e-06  ,      0.0 ,      0.0 ,      0.0 ,-6.322614402224944e-07  ,-4.0883234684609163e-05 ,      0.0 ,-4.151549577083483e-05  ,2.342710886852535e-05  ,1.0                  ,-0.0023500903625224     ,-5.690662945062316e-06  ,0.0                     ,0.0023506213976456558  ,-189.59762674236924    ,0.0 ,0.0                   ,0.0                     ,        0.0 ,        0.0 , 0.0
 0.0 ,0.0 ,           0.0 ,            0.0 ,            0.0 ,            0.0 ,              0.0 ,                   0.0 , 992.0 ,25.34257 ,-37.86379 ,           0.0 ,           0.0 ,       0.0 ,-191.1366      ,-18.75012   ,-0.0001729569    ,0.0001162682     ,                 0.0 ,             0.0 ,             0.0 ,                 0.0 ,                 0.0 ,        0.0 ,1.9655013418015876     ,            0.0 ,            0.0 ,            0.0 ,              0.0 ,                   0.0 ,  0.0 ,0.0 , 896.3801370023634   ,1.0                ,0.0 ,-243.34411156623014 ,-487.00561407619495 ,-3.2779738488246233     ,-243.47914107231435 ,          0.0 ,          0.0 ,-243.29964682144094 ,-487.0500298783549  ,-243.47914107231435 ,-973.8288659351224  ,140.67760217617572   ,324.60960566416435  ,243.6606862092309    ,-433.56529888058805   ,-677.2268516683065  ,-3.2779738488246233     ,-433.70037866442595 ,          0.0 ,          0.0 ,-433.5208844135525   ,-677.2712171927128  ,-433.70037866442595 ,-1544.492531328062  ,140.67760217617572   ,514.830843256276     ,243.6606862092309    ,1.422328051337374e-08   ,-2.0758794357871128e-05 ,-2.254325829500827e-06  ,      0.0 ,      0.0 ,      0.0 ,7.522630385759417e-08   ,-2.0819798859109504e-05 ,      0.0 ,-2.0744572694283625e-05 ,1.2042196837944696e-05 ,1.0                  ,-0.00325822462021974    ,-0.00036813294122356325 ,0.0                     ,0.0032914929070498597  ,-190.22123759211158    ,0.0 ,0.0                   ,0.0                     ,        0.0 ,        0.0 , 0.0
 0.0 ,0.0 ,           0.0 ,            0.0 ,            0.0 ,            0.0 ,              0.0 ,                   0.0 , 993.0 ,27.33579 ,-37.92027 ,           0.0 ,           0.0 ,       0.0 ,-191.7826      ,-18.742     ,-4.903991e-05    ,-7.619135e-07    ,                 0.0 ,             0.0 ,             0.0 ,                 0.0 ,                 0.0 ,        0.0 ,0.5098917315400509     ,            0.0 ,            0.0 ,            0.0 ,              0.0 ,                   0.0 ,  0.0 ,0.0 , 894.7094588609241   ,1.0                ,0.0 ,-242.86037002494785 ,-486.33851143748876 ,-3.181676674859217      ,-242.9932947025924  ,          0.0 ,          0.0 ,-242.81822802909852 ,-486.3806033673727  ,-242.9932947025924  ,-972.192176165029   ,140.57031474314078   ,324.06407571806744  ,243.47489101235408   ,-433.6248225140536    ,-677.1030124758174  ,-3.181676674859217      ,-433.75784626849037 ,          0.0 ,          0.0 ,-433.5827795949965   ,-677.1451059224438  ,-433.75784626849037 ,-1544.4858823135    ,140.57031474314078   ,514.8285767563962    ,243.47489101235408   ,1.8364230345053236e-08  ,-2.255233291682073e-05  ,-1.638396262380459e-06  ,      0.0 ,      0.0 ,      0.0 ,4.806164831618626e-08   ,-2.2582030463905295e-05 ,      0.0 ,-2.2533968268843725e-05 ,1.3051638483478298e-05 ,1.0                  ,-0.003076304455204934   ,-0.0003585275175005428  ,0.0                     ,0.00310873442922066    ,-190.76455156589793    ,0.0 ,0.0                   ,0.0                     ,        0.0 ,        0.0 , 0.0
 0.0 ,0.0 ,           0.0 ,            0.0 ,            0.0 ,            0.0 ,              0.0 ,                   0.0 , 994.0 ,29.32506 ,-37.95627 ,           0.0 ,           0.0 ,       0.0 ,-192.2156      ,-18.73471   ,-0.0001768396    ,-0.000226237     ,                 0.0 ,             0.0 ,             0.0 ,                 0.0 ,                 0.0 ,        0.0 ,0.49981350473015457    ,            0.0 ,            0.0 ,            0.0 ,              0.0 ,                   0.0 ,  0.0 ,0.0 , 897.0195513318706   ,1.0                ,0.0 ,-242.43200671503374 ,-485.94415633625215 ,-2.8352039738769546     ,-242.6693938158238  ,          0.0 ,          0.0 ,-242.3989598992193  ,-485.9771034053688  ,-242.6693938158238  ,-971.0455568671097  ,140.5519890508782    ,323.68188553793584  ,243.44317562788612   ,-433.64832633774006   ,-677.1604264469133  ,-2.8352039738769546     ,-433.88576367318274 ,          0.0 ,          0.0 ,-433.61532975657826  ,-677.1934730094255  ,-433.88576367318274 ,-1544.6945671244948 ,140.5519890508782    ,514.8981556485969    ,243.44317562788612   ,1.7593040513832702e-08  ,-2.2111174663731597e-05 ,-1.6045727862159187e-06 ,      0.0 ,      0.0 ,      0.0 ,4.6642081453508154e-08  ,-2.2140223824626515e-05 ,      0.0 ,-2.2093581228365096e-05 ,1.2796150376075708e-05 ,0.8236270803820707   ,0.4965552827605501      ,-0.0016315704223649643  ,-0.0002325263460033594  ,0.0010983582423507968  ,-100.57256781827463    ,0.0 ,-90.64215575610783    ,-90.64215575610783      ,        0.0 ,        0.0 , 0.0
 0.0 ,0.0 ,           0.0 ,            0.0 ,            0.0 ,            0.0 ,              0.0 ,                   0.0 , 995.0 ,31.30749 ,-37.96224 ,           0.0 ,           0.0 ,       0.0 ,-192.3412      ,-18.72811   ,-0.001352579     ,5.243752e-06     ,                 0.0 ,             0.0 ,             0.0 ,                 0.0 ,                 0.0 ,        0.0 ,1.501757073595372      ,            0.0 ,            0.0 ,            0.0 ,              0.0 ,                   0.0 ,  0.0 ,0.0 , 897.9741294627668   ,1.0                ,0.0 ,-242.0008013550654  ,-485.0619083736825  ,-2.625631651528294      ,-242.24145242895443 ,          0.0 ,          0.0 ,-241.97231492986384 ,-485.0903449313787  ,-242.24145242895443 ,-969.3041121360959  ,140.28672174659692   ,323.10138737149657  ,242.983735711188     ,-433.8943632415969    ,-676.9554203927087  ,-2.625631651528294      ,-434.13501431548593 ,          0.0 ,          0.0 ,-433.86587681639526  ,-676.9839069287984  ,-434.13501431548593 ,-1544.9844979065786 ,140.28672174659692   ,514.9948993905225    ,242.983735711188     ,-2.2870583584081256e-08 ,-1.7033243680152812e-05 ,-4.621239867441011e-06  ,      0.0 ,      0.0 ,      0.0 ,2.8591177573455764e-07  ,-1.7342022951364124e-05 ,      0.0 ,-1.705611503095257e-05  ,1.0095972303358256e-05 ,0.6458669973871418   ,0.9988887038845126      ,-0.00450341258662786    ,-0.0002336285058884215  ,2.4140882906625432e-06 ,-0.1950483208862819    ,0.0 ,-191.69399361589177   ,-191.69399361589177     ,        0.0 ,        0.0 , 0.0
 0.0 ,0.0 ,           0.0 ,            0.0 ,            0.0 ,            0.0 ,              0.0 ,                   0.0 , 996.0 ,33.2833  ,-37.95335 ,           0.0 ,           0.0 ,       0.0 ,-192.3128      ,-18.72207   ,-0.001410909     ,-5.853444e-06    ,                 0.0 ,             0.0 ,             0.0 ,                 0.0 ,                 0.0 ,        0.0 ,2.001617930374714      ,            0.0 ,            0.0 ,            0.0 ,              0.0 ,                   0.0 ,  0.0 ,0.0 , 898.834194535541    ,1.0                ,0.0 ,-242.07936223526013 ,-485.49847280352964 ,-2.3734298195625168     ,-242.14787450468376 ,          0.0 ,          0.0 ,-242.05624863513515 ,-485.5215863168575  ,-242.14787450468376 ,-969.7256594191784  ,140.5383820822913    ,323.2419030982945   ,243.41960003198903   ,-432.9166298902969    ,-676.3357403717692  ,-2.3734298195625168     ,-432.9851421597205  ,          0.0 ,          0.0 ,-432.89351629017193  ,-676.3589037608019  ,-432.9851421597205  ,-1542.2372121731964 ,140.5383820822913    ,514.0791706665341    ,243.41960003198903   ,6.158026648685942e-08   ,-3.975406649432318e-05  ,-6.142150221311241e-06  ,      0.0 ,      0.0 ,      0.0 ,3.960498264116097e-07   ,-4.00885321649564e-05   ,      0.0 ,-3.9692487841149474e-05 ,2.3260587477229377e-05 ,0.8219301794189388   ,0.5010269944644891      ,-0.002879199151106285   ,-1.0316693592313994e-06 ,0.0010839279227496292  ,-89.60346296966364     ,0.0 ,-101.23092563437406   ,-101.23092563437406     ,        0.0 ,        0.0 , 0.0
 0.0 ,0.0 ,           0.0 ,            0.0 ,            0.0 ,            0.0 ,              0.0 ,                   0.0 , 997.0 ,35.25259 ,-37.9489  ,           0.0 ,           0.0 ,       0.0 ,-192.3241      ,-18.71649   ,-0.001807891     ,3.110617e-05     ,                 0.0 ,             0.0 ,             0.0 ,                 0.0 ,                 0.0 ,        0.0 ,1.0009541404504367     ,            0.0 ,            0.0 ,            0.0 ,              0.0 ,                   0.0 ,  0.0 ,0.0 , 900.2068927688427   ,1.0                ,0.0 ,-241.8592032496201  ,-485.5141602329112  ,-1.8622952673307047     ,-241.93732846475527 ,          0.0 ,          0.0 ,-241.84420713289003 ,-485.52915634964126 ,-241.93732846475527 ,-969.3106919472866  ,140.6647513789598    ,323.10358064171606  ,243.6384389103364    ,-432.11510972056135   ,-675.7701165351627  ,-1.8622952673307047     ,-432.1932848624209  ,          0.0 ,          0.0 ,-432.1001634351416   ,-675.7851627251683  ,-432.1932848624209  ,-1540.0783610448693 ,140.6647513789598    ,513.3595370393818    ,243.6384389103364    ,1.1167406561808489e-07  ,-4.6121938096102766e-05 ,-2.8674069165112877e-06 ,      0.0 ,      0.0 ,      0.0 ,1.5633434269706394e-07  ,-4.616659378809795e-05  ,      0.0 ,-4.601026243211244e-05  ,2.6699561681883736e-05 ,0.8233303157399512   ,0.49913334248199126     ,-0.0010903909950646402  ,-9.813800099954888e-08  ,0.0010880415365865075  ,-89.94531675132762     ,0.0 ,-100.3095494329491    ,-100.3095494329491      ,        0.0 ,        0.0 , 0.0
 0.0 ,0.0 ,           0.0 ,            0.0 ,            0.0 ,            0.0 ,              0.0 ,                   0.0 , 998.0 ,37.21185 ,-37.97822 ,           0.0 ,           0.0 ,       0.0 ,-192.6695      ,-18.71128   ,-0.003390972     ,4.779709e-05     ,                 0.0 ,             0.0 ,             0.0 ,                 0.0 ,                 0.0 ,        0.0 ,1.0170735446471442     ,            0.0 ,            0.0 ,            0.0 ,              0.0 ,                   0.0 ,  0.0 ,0.0 , 898.3957585817734   ,1.0                ,0.0 ,-241.35558886140592 ,-484.5221751629954  ,-1.304575277451594      ,-241.51919186739886 ,          0.0 ,          0.0 ,-241.34841552012364 ,-484.5293485042777  ,-241.51919186739886 ,-967.3969558918002  ,140.3513279691395    ,322.4656599180454   ,243.0956470892779    ,-432.59115137854167   ,-675.7577626784146  ,-1.304575277451594      ,-432.7548049525083  ,          0.0 ,          0.0 ,-432.5840030355427   ,-675.7649615893872  ,-432.7548049525083  ,-1541.103641164446  ,140.3513279691395    ,513.7012730031548    ,243.0956470892779    ,1.5668669735045858e-08  ,-3.4195755423339734e-05 ,-2.555828892524889e-06  ,      0.0 ,      0.0 ,      0.0 ,6.880529298457271e-08   ,-3.424888794761207e-05  ,      0.0 ,-3.4180085183555123e-05 ,1.9793498870238866e-05 ,0.6465842096023603   ,1.0                     ,-0.002644143914151797   ,-1.659965940525581e-05  ,0.0                    ,0.002644345346413957   ,0.0 ,-191.2356130851095    ,-191.2356130851095      ,        0.0 ,        0.0 , 0.0
 0.0 ,0.0 ,           0.0 ,            0.0 ,            0.0 ,            0.0 ,              0.0 ,                   0.0 , 999.0 ,39.15754 ,-38.0659  ,           0.0 ,           0.0 ,       0.0 ,-193.5952      ,-18.70638   ,-0.003696967     ,-2.130758e-05    ,                 0.0 ,             0.0 ,             0.0 ,                 0.0 ,                 0.0 ,        0.0 ,0.48184968103424053    ,            0.0 ,            0.0 ,            0.0 ,              0.0 ,                   0.0 ,  0.0 ,0.0 , 899.5200581268477   ,1.0                ,0.0 ,-240.91360721652413 ,-483.67915524982106 ,-1.0067288341688128     ,-241.2415856932242  ,          0.0 ,          0.0 ,-240.9093475996409  ,-483.683389247622   ,-241.2415856932242  ,-965.8343225404872  ,140.06992635790533   ,321.9447904341075   ,242.60825564925932   ,-434.15174103757926   ,-676.9172890708762  ,-1.0067288341688128     ,-434.47976922584564 ,          0.0 ,          0.0 ,-434.14750703977836  ,-676.9215230686771  ,-434.47976922584564 ,-1545.5487291603147 ,140.06992635790533   ,515.182949874245     ,242.60825564925932   ,-2.8352227971927126e-08 ,-1.0079387040587562e-05 ,-1.4320454467165775e-06 ,      0.0 ,      0.0 ,      0.0 ,2.240003523204736e-08   ,-1.0130137858242493e-05 ,      0.0 ,-1.0107739075819616e-05 ,5.855114484641798e-06  ,0.7370475622600836   ,0.7432083428888192      ,-0.002217484594103028   ,-3.302986610177189e-05  ,0.000603780796445988   ,-42.48071051919654     ,0.0 ,-150.7552905935014    ,-150.7552905935014      ,        0.0 ,        0.0 , 0.0
 0.0 ,0.0 ,           0.0 ,            0.0 ,            0.0 ,            0.0 ,              0.0 ,                   0.0 ,1000.0 ,41.09689 ,-38.13221 ,           0.0 ,           0.0 ,       0.0 ,-194.305       ,-18.70171   ,-0.001620247     ,-0.000193354     ,                 0.0 ,             0.0 ,             0.0 ,                 0.0 ,                 0.0 ,        0.0 ,3.00049327411445       ,            0.0 ,            0.0 ,            0.0 ,              0.0 ,                   0.0 ,  0.0 ,0.0 , 903.3857359509541   ,1.0                ,0.0 ,-241.6741771978772  ,-485.09207260013966 ,-0.8553442409063245     ,-241.6876243872935  ,          0.0 ,          0.0 ,-241.671127710594   ,-485.0951721120865  ,-241.6876243872935  ,-968.4538740918765  ,140.5361508908891    ,322.8179745956371   ,243.4157972777825    ,-434.26142475753034   ,-677.6793201597927  ,-0.8553442409063245     ,-434.27487171075154 ,          0.0 ,          0.0 ,-434.2583252455834   ,-677.682369553642   ,-434.27487171075154 ,-1546.2155681581216 ,140.5361508908891    ,515.405222248724     ,243.4157972777825    ,-1.2986962698869672e-07 ,-4.392287986951224e-05  ,-4.902176103080261e-06  ,      0.0 ,      0.0 ,      0.0 ,1.592664836613023e-08   ,-4.406867569353468e-05  ,      0.0 ,-4.40527488977208e-05   ,2.5447689732169493e-05 ,0.8239002775225583   ,0.4966357423422722      ,-0.001829614878290971   ,-4.0009744544427925e-07 ,0.0012489558448597476  ,-92.02750027030365     ,0.0 ,-100.55791948529111   ,-100.55791948529111     ,        0.0 ,        0.0 , 0.0
 0.0 ,0.0 ,           0.0 ,            0.0 ,            0.0 ,            0.0 ,              0.0 ,                   0.0 ,1001.0 ,43.03441 ,-38.16152 ,           0.0 ,           0.0 ,       0.0 ,-194.643       ,-18.69722   ,-0.001616734     ,-0.0001024958    ,                 0.0 ,             0.0 ,             0.0 ,                 0.0 ,                 0.0 ,        0.0 ,3.482337768362977      ,            0.0 ,            0.0 ,            0.0 ,              0.0 ,                   0.0 ,  0.0 ,0.0 , 903.4554617813272   ,1.0                ,0.0 ,-241.63903036656097 ,-484.93730176072495 ,-0.6383017530696234     ,-241.6521006819633  ,          0.0 ,          0.0 ,-241.63732909309647 ,-484.9390526205161  ,-241.6521006819633  ,-968.2284321329744  ,140.4660581015196    ,322.74279413185855  ,243.29438747038478   ,-435.03941816787574   ,-678.3376895620398  ,-0.6383017530696234     ,-435.05238915955294 ,          0.0 ,          0.0 ,-435.0376673080847   ,-678.3393908355042  ,-435.05238915955294 ,-1548.429598465077  ,140.4660581015196    ,516.1431819331734    ,243.29438747038478   ,-2.68012764197341e-08   ,-3.933559959401115e-05  ,-6.793951820372408e-06  ,      0.0 ,      0.0 ,      0.0 ,3.695973753498936e-07   ,-3.9731996452770424e-05 ,      0.0 ,-3.9362399209265546e-05 ,2.3048051120956867e-05 ,0.9976128890476352   ,0.00268502746132077     ,-1.7251581138024955e-05 ,-2.86485315610283e-09   ,0.00407772265380402    ,-192.03667700633406    ,0.0 ,-1.363696087490268    ,-1.363696087490268      ,        0.0 ,        0.0 , 0.0
 0.0 ,0.0 ,           0.0 ,            0.0 ,            0.0 ,            0.0 ,              0.0 ,                   0.0 ,1002.0 ,44.97176 ,-38.16475 ,           0.0 ,           0.0 ,       0.0 ,-194.7188      ,-18.69286   ,-0.002885639     ,5.017969e-05     ,                 0.0 ,             0.0 ,             0.0 ,                 0.0 ,                 0.0 ,        0.0 ,3.001731130807391      ,            0.0 ,            0.0 ,            0.0 ,              0.0 ,                   0.0 ,  0.0 ,0.0 , 904.9355822429552   ,0.9999999999999999 ,0.0 ,-241.9414381724978  ,-485.87026313608    ,-0.05053259431838006    ,-241.96096125329055 ,          0.0 ,          0.0 ,-241.941434955384   ,-485.8702663531938  ,-241.96096125329055 ,-969.7726127824712  ,140.82675035891774   ,323.2575541556296   ,243.91909340664787   ,-434.9868120116148    ,-678.9155870226867  ,-0.05053259431838006    ,-435.0062848718045  ,          0.0 ,          0.0 ,-434.9867588419908   ,-678.9156401923107  ,-435.0062848718045  ,-1548.9085839842394 ,140.82675035891774   ,516.3028780422363    ,243.91909340664787   ,1.7684434466746807e-07  ,-4.407808092880016e-05  ,-4.6474405979125505e-06 ,      0.0 ,      0.0 ,      0.0 ,3.063323340217677e-07   ,-4.420756958388828e-05  ,      0.0 ,-4.390123453455171e-05  ,2.5612176297318556e-05 ,0.8236986597441083   ,0.4976852108643639      ,-0.0012421132493921723  ,-1.6527317473659948e-06 ,0.0018398909524946039  ,-101.33991551851418    ,0.0 ,-91.70416681743525    ,-91.70416681743525      ,        0.0 ,        0.0 , 0.0
 0.0 ,0.0 ,           0.0 ,            0.0 ,            0.0 ,            0.0 ,              0.0 ,                   0.0 ,1003.0 ,46.91132 ,-38.15375 ,           0.0 ,           0.0 ,       0.0 ,-194.6514      ,-18.68862   ,-0.003088826     ,9.24415e-08      ,                 0.0 ,             0.0 ,             0.0 ,                 0.0 ,                 0.0 ,        0.0 ,2.5040532517917327     ,            0.0 ,            0.0 ,            0.0 ,              0.0 ,                   0.0 ,  0.0 ,0.0 , 906.17912670696     ,1.0                ,0.0 ,-241.96745938988357 ,-486.0636883726225  ,0.17304932903026862     ,-241.96500275175438 ,          0.0 ,          0.0 ,-241.96730953547558 ,-486.06383822703054 ,-241.96500275175438 ,-969.9961006519898  ,140.92984703062706   ,323.3320002199508   ,244.09768208734693   ,-434.60023486141074   ,-678.6965638441498  ,0.17304932903026862     ,-434.59782836101084 ,          0.0 ,          0.0 ,-434.60008500700275  ,-678.6967136985577  ,-434.59782836101084 ,-1547.894476976018  ,140.92984703062706   ,515.9648756836152    ,244.09768208734693   ,2.682263197339675e-07   ,-4.7701620398221e-05    ,-2.605550307561837e-06  ,      0.0 ,      0.0 ,      0.0 ,3.100480414773043e-07   ,-4.7743442924796524e-05 ,      0.0 ,-4.743339684323219e-05  ,2.7654707211094973e-05 ,0.8242574351544496   ,0.49737752109914174     ,-0.0010843786884265556  ,-3.923228778856893e-07  ,0.0012451874822021242  ,-92.02788025658153     ,0.0 ,-100.60386255934132   ,-100.60386255934132     ,        0.0 ,        0.0 , 0.0
 0.0 ,0.0 ,           0.0 ,            0.0 ,            0.0 ,            0.0 ,              0.0 ,                   0.0 ,1004.0 ,48.85545 ,-38.13534 ,           0.0 ,           0.0 ,       0.0 ,-194.5089      ,-18.68445   ,-0.002056498     ,3.784437e-05     ,                 0.0 ,             0.0 ,             0.0 ,                 0.0 ,                 0.0 ,        0.0 ,2.0000599085355883     ,            0.0 ,            0.0 ,            0.0 ,              0.0 ,                   0.0 ,  0.0 ,0.0 , 907.2937394202272   ,1.0                ,0.0 ,-241.58565107564021 ,-484.86294428681373 ,0.020898297964420484    ,-241.58045099136268 ,          0.0 ,          0.0 ,-241.58560129989166 ,-484.8629940625623  ,-241.58045099136268 ,-968.0290463538167  ,140.45778526831143   ,322.67636530276974  ,243.27994314268426   ,-434.8558521306618    ,-678.1332451205792  ,0.020898297964420484    ,-434.85075182512827 ,          0.0 ,          0.0 ,-434.8558521306618   ,-678.1332451205792  ,-434.85075182512827 ,-1547.8398997611055 ,140.45778526831143   ,515.9465663577913    ,243.27994314268426   ,2.778801855325786e-07   ,-3.9457770262633534e-05 ,-4.600944440290103e-06  ,      0.0 ,      0.0 ,      0.0 ,5.421621354516488e-07   ,-3.972205559535454e-05  ,      0.0 ,-3.917989362208695e-05  ,2.3092762786325957e-05 ,0.9992183224504392   ,-0.0017217099382857085  ,-9.241068543945219e-06  ,-6.1629222656763146e-09 ,0.003934272479763562   ,-192.86546525134523    ,0.0 ,-0.4047807793688404   ,-0.4047807793688404     ,        0.0 ,        0.0 , 0.0
 0.0 ,0.0 ,           0.0 ,            0.0 ,            0.0 ,            0.0 ,              0.0 ,                   0.0 ,1005.0 ,50.80677 ,-38.11214 ,           0.0 ,           0.0 ,       0.0 ,-194.318       ,-18.68035   ,-0.0007738702    ,0.0002196182     ,                 0.0 ,             0.0 ,             0.0 ,                 0.0 ,                 0.0 ,        0.0 ,0.9956238431885698     ,            0.0 ,            0.0 ,            0.0 ,              0.0 ,                   0.0 ,  0.0 ,0.0 , 908.3750585604519   ,1.0                ,0.0 ,-241.558731850181   ,-485.1616328262863  ,0.0977990813393158      ,-241.56027111785957 ,          0.0 ,          0.0 ,-241.55868213532133 ,-485.1616328262863  ,-241.56027111785957 ,-968.2806353567111  ,140.64379290486747   ,322.76021174134877  ,243.60215685611936   ,-433.7938499346547    ,-677.3967011959004  ,0.0977990813393158      ,-433.7953892023333  ,          0.0 ,          0.0 ,-433.79380021979506  ,-677.39675091076    ,-433.7953892023333  ,-1544.98614094279   ,140.64379290486747   ,514.9952801109628    ,243.60215685611936   ,5.249183031618642e-07   ,-4.8153117991292936e-05 ,-8.697235046565547e-07  ,      0.0 ,      0.0 ,      0.0 ,5.296228782371926e-07   ,-4.815781714028465e-05  ,      0.0 ,-4.762819834582986e-05  ,2.795813633571578e-05  ,0.6470282272246174   ,1.0                     ,-0.0021678783155044184  ,-2.1013730132857522e-06 ,0.0                    ,0.00216788068697478    ,0.0 ,-192.23511808447375   ,-192.23511808447375     ,        0.0 ,        0.0 , 0.0
 0.0 ,0.0 ,           0.0 ,            0.0 ,            0.0 ,            0.0 ,              0.0 ,                   0.0 ,1006.0 ,52.76784 ,-38.08347 ,           0.0 ,           0.0 ,       0.0 ,-194.0719      ,-18.67628   ,-0.001304042     ,4.026472e-06     ,                 0.0 ,             0.0 ,             0.0 ,                 0.0 ,                 0.0 ,        0.0 ,1.0205464912995934     ,            0.0 ,            0.0 ,            0.0 ,              0.0 ,                   0.0 ,  0.0 ,0.0 , 909.4816182699315   ,1.0                ,0.0 ,-240.8304226524988  ,-483.3794486928703  ,0.03456202135129234     ,-241.0098514352088  ,          0.0 ,          0.0 ,-240.8304219562765  ,-483.37944938909266 ,-241.0098514352088  ,-965.2196731116801  ,139.98397835252592   ,321.7398744922667   ,242.45936272736773   ,-434.2528053978967    ,-676.8018314382682  ,0.03456202135129234     ,-434.43223487682894 ,          0.0 ,          0.0 ,-434.25280470167434  ,-676.8018321344905  ,-434.43223487682894 ,-1545.4871214159093 ,139.98397835252592   ,515.1622572376646    ,242.45936272736773   ,4.211356114051224e-07   ,-1.99959506088137e-05   ,-1.3253001145949016e-06 ,      0.0 ,      0.0 ,      0.0 ,4.4267529755890514e-07  ,-2.0017490742580715e-05 ,      0.0 ,-1.9574819387064e-05    ,1.1687005557456867e-05 ,0.6487236825343643   ,0.9930205786119727      ,-0.0028413552505044317  ,-2.1655401700071307e-05 ,1.7198424416826313e-05 ,-1.2667448991368397    ,0.0 ,-192.15279631636332   ,-192.15279631636332     ,        0.0 ,        0.0 , 0.0
 0.0 ,0.0 ,           0.0 ,            0.0 ,            0.0 ,            0.0 ,              0.0 ,                   0.0 ,1007.0 ,54.74057 ,-38.04662 ,           0.0 ,           0.0 ,       0.0 ,-193.7438      ,-18.67225   ,-0.002830483     ,-6.630066e-05    ,                 0.0 ,             0.0 ,             0.0 ,                 0.0 ,                 0.0 ,        0.0 ,2.4750160568635073     ,            0.0 ,            0.0 ,            0.0 ,              0.0 ,                   0.0 ,  0.0 ,0.0 , 910.6622497564941   ,1.0                ,0.0 ,-241.2492446258479  ,-484.1656714922243  ,0.07011377289789446     ,-241.24627064850614 ,          0.0 ,          0.0 ,-241.2491921223414  ,-484.1657249966222  ,-241.24627064850614 ,-966.6611877674698  ,140.24879445737133   ,322.22039592248996  ,242.9180188620603    ,-433.0121843364077    ,-675.9286112027842  ,0.07011377289789446     ,-433.0092598598983  ,          0.0 ,          0.0 ,-433.0121308320099   ,-675.9286637062908  ,-433.0092598598983  ,-1541.9499039066995 ,140.24879445737133   ,513.9833346321584    ,242.9180188620603    ,1.3258245286551187e-06  ,-4.7138456580034246e-05 ,4.541998219666087e-07   ,      0.0 ,      0.0 ,      0.0 ,1.3573735027729592e-06  ,-4.71700023365852e-05   ,      0.0 ,-4.5812631308802734e-05 ,2.763428151976353e-05  ,0.8249488509714368   ,0.4937397524147368      ,-0.00107336272231138    ,-6.646356297659503e-07  ,0.001243015895537658   ,-92.10401988327273     ,0.0 ,-99.65784952061439    ,-99.65784952061439      ,        0.0 ,        0.0 , 0.0
 0.0 ,0.0 ,           0.0 ,            0.0 ,            0.0 ,            0.0 ,              0.0 ,                   0.0 ,1008.0 ,56.72443 ,-38.00359 ,           0.0 ,           0.0 ,       0.0 ,-193.3535      ,-18.66823   ,-0.002013629     ,0.0002954835     ,                 0.0 ,             0.0 ,             0.0 ,                 0.0 ,                 0.0 ,        0.0 ,0.03722308864229612    ,            0.0 ,            0.0 ,            0.0 ,              0.0 ,                   0.0 ,  0.0 ,0.0 , 911.8633746777567   ,1.0                ,0.0 ,-240.51163266300813 ,-482.1942188487325  ,-0.12120579786107968    ,-240.60226325826358 ,          0.0 ,          0.0 ,-240.5109391404976  ,-482.19496054429374 ,-240.60226325826358 ,-963.3081148384144  ,139.5099766981316    ,321.10268849766817  ,241.6383599995031    ,-433.8649082811505    ,-675.5474957076447  ,-0.12120579786107968    ,-433.95554011717564 ,          0.0 ,          0.0 ,-433.8641665855893   ,-675.5481879893854  ,-433.95554011717564 ,-1543.367692210611  ,139.5099766981316    ,514.4559652881699    ,241.6383599995031    ,1.6937051270878156e-08  ,-3.327495970696991e-07  ,-5.147755876859749e-08  ,      0.0 ,      0.0 ,      0.0 ,1.8821408094913325e-08  ,-3.346339538937343e-07  ,      0.0 ,-3.158125954296058e-07  ,1.9885715460766283e-07 ,0.9955585485078191   ,0.010421290493687122    ,-9.141594173259832e-05  ,-1.4693541272229683e-07 ,0.0019865465320129316  ,-191.08098006500256    ,0.0 ,-2.272226370766382    ,-2.272226370766382      ,        0.0 ,        0.0 , 0.0
 0.0 ,0.0 ,           0.0 ,            0.0 ,            0.0 ,            0.0 ,              0.0 ,                   0.0 ,1009.0 ,58.71376 ,-37.97652 ,           0.0 ,           0.0 ,       0.0 ,-193.1227      ,-18.66425   ,-0.001807192     ,0.0003207336     ,                 0.0 ,             0.0 ,             0.0 ,                 0.0 ,                 0.0 ,        0.0 ,1.5189652265867788     ,            0.0 ,            0.0 ,            0.0 ,              0.0 ,                   0.0 ,  0.0 ,0.0 , 912.6106910450477   ,1.0                ,0.0 ,-241.04228038850601 ,-482.29968372057016 ,-0.5982608721448501     ,-240.97669591707213 ,          0.0 ,          0.0 ,-241.03998650736128 ,-482.3019276506228  ,-240.97669591707213 ,-964.3187095642447  ,139.31092783943006   ,321.4395861971764   ,241.29366299529462   ,-434.14228335793894   ,-675.3997366410953  ,-0.5982608721448501     ,-434.0767488375972  ,          0.0 ,          0.0 ,-434.14003891707483  ,-675.4019805711478  ,-434.0767488375972  ,-1543.6187156033056 ,139.31092783943006   ,514.5395895796053    ,241.29366299529462   ,6.671392133222802e-07   ,-1.3629327428063677e-05 ,-2.081864881786394e-06  ,      0.0 ,      0.0 ,      0.0 ,7.431024670704625e-07   ,-1.3705290671595629e-05 ,      0.0 ,-1.2962190192352623e-05 ,8.136445320186769e-06  ,0.6437187914984581   ,1.0                     ,-0.0038301507362149363  ,-1.0772956261754783e-05 ,0.0                    ,0.0038301686858946077  ,0.0 ,-193.1000529205251    ,-193.1000529205251      ,        0.0 ,        0.0 , 0.0
 0.0 ,0.0 ,           0.0 ,            0.0 ,            0.0 ,            0.0 ,              0.0 ,                   0.0 ,1010.0 ,60.69971 ,-37.9823  ,           0.0 ,           0.0 ,       0.0 ,-193.2198      ,-18.66031   ,-0.004363177     ,-1.832941e-05    ,                 0.0 ,             0.0 ,             0.0 ,                 0.0 ,                 0.0 ,        0.0 ,2.0131647902607073     ,            0.0 ,            0.0 ,            0.0 ,              0.0 ,                   0.0 ,  0.0 ,0.0 , 913.5691806524312   ,0.9999999999999999 ,0.0 ,-242.04721993686957 ,-483.89260188665867 ,-0.9276660038599447     ,-241.74904151492916 ,          0.0 ,          0.0 ,-242.0436382423896  ,-483.8961831464852  ,-241.74904151492916 ,-967.6889129006743  ,139.71880055099626   ,322.5629708199205   ,242.00009305988803   ,-434.3277373438257    ,-676.1731197282681  ,-0.9276660038599447     ,-434.02955935653864 ,          0.0 ,          0.0 ,-434.32410608086946  ,-676.1767009880946  ,-434.02955935653864 ,-1544.5303633641506 ,139.71880055099626   ,514.8434390993132    ,242.00009305988803   ,-1.4345289464202147e-06 ,-2.2968255636195224e-05 ,-9.453891236429631e-07  ,      0.0 ,      0.0 ,      0.0 ,-1.4238322100194332e-06 ,-2.2978951372533412e-05 ,      0.0 ,-2.440278259987639e-05  ,1.2875943098544846e-05 ,0.6440113643752663   ,0.9999999999999999      ,-0.0022343082943227645  ,-8.742033349316046e-06  ,0.0                    ,0.0022343267418200863  ,0.0 ,-192.2805178416095    ,-192.2805178416095      ,        0.0 ,        0.0 , 0.0
 0.0 ,0.0 ,           0.0 ,            0.0 ,            0.0 ,            0.0 ,              0.0 ,                   0.0 ,1011.0 ,62.6732  ,-38.00155 ,           0.0 ,           0.0 ,       0.0 ,-193.4511      ,-18.65644   ,-0.007648833     ,4.994091e-05     ,                 0.0 ,             0.0 ,             0.0 ,                 0.0 ,                 0.0 ,        0.0 ,1.9931493640652196     ,            0.0 ,            0.0 ,            0.0 ,              0.0 ,                   0.0 ,  0.0 ,0.0 , 913.7474745822982   ,1.0                ,0.0 ,-243.1592455200951  ,-485.42688896514414 ,-2.2708261127497376     ,-242.56172120538105 ,          0.0 ,          0.0 ,-243.12985164714914 ,-485.45623266682423 ,-242.56172120538105 ,-971.1478055193544  ,140.07149742324756   ,323.7159353025014   ,242.61099665171648   ,-435.67437068467933   ,-677.9420141297284  ,-2.2708261127497376     ,-435.07684636996527 ,          0.0 ,          0.0 ,-435.6449771770741   ,-677.9714079798653  ,-435.07684636996527 ,-1548.6930319606724 ,140.07149742324756   ,516.2310604670856    ,242.61099665171648   ,-1.4350667620308387e-06 ,-2.277241361128854e-05  ,-9.238549770556243e-07  ,      0.0 ,      0.0 ,      0.0 ,-1.4250691385309107e-06 ,-2.2782410239810418e-05 ,      0.0 ,-2.4207478380398104e-05 ,1.2761957694906135e-05 ,0.8219277272108906   ,0.49731131974548387     ,-0.0012274562799759277  ,-3.8554733387924114e-06 ,0.0009760343153501754  ,-102.08777119459765    ,0.0 ,-90.42613160192298    ,-90.42613160192298      ,        0.0 ,        0.0 , 0.0
 0.0 ,0.0 ,           0.0 ,            0.0 ,            0.0 ,            0.0 ,              0.0 ,                   0.0 ,1012.0 ,64.6269  ,-38.00973 ,           0.0 ,           0.0 ,       0.0 ,-193.571       ,-18.65264   ,-0.002055723     ,0.0005433767     ,                 0.0 ,             0.0 ,             0.0 ,                 0.0 ,                 0.0 ,        0.0 ,1.4895666007378994     ,            0.0 ,            0.0 ,            0.0 ,              0.0 ,                   0.0 ,  0.0 ,0.0 , 915.09765012317     ,1.0                ,0.0 ,-244.57272021897387 ,-486.32411439460407 ,-4.181934670430111      ,-243.3838025036213  ,          0.0 ,          0.0 ,-244.48282337827231 ,-486.4140109647225  ,-243.3838025036213  ,-974.2806368466161  ,139.99790363010217   ,324.76021237239974  ,242.48352842952772   ,-438.27268846803634   ,-680.0241327208635  ,-4.181934670430111      ,-437.0837707526838  ,          0.0 ,          0.0 ,-438.18284197511474  ,-680.114029561565   ,-437.0837707526838  ,-1555.3802931783098 ,139.99790363010217   ,518.4601806214622    ,242.48352842952772   ,-4.733113266032883e-07  ,-1.2145350096664547e-05 ,-5.123821123662231e-06  ,      0.0 ,      0.0 ,      0.0 ,6.424843349300731e-08   ,-1.2682909856760843e-05 ,      0.0 ,-1.2618664849271018e-05 ,7.341100591524624e-06  ,0.6439772736571279   ,0.9972889052566835      ,-0.0037712826941624744  ,-1.887651623628294e-05  ,5.263936916786476e-06  ,-0.5468137977514592    ,0.0 ,-193.14943315362711   ,-193.14943315362711     ,        0.0 ,        0.0 , 0.0
 0.0 ,0.0 ,           0.0 ,            0.0 ,            0.0 ,            0.0 ,              0.0 ,                   0.0 ,1013.0 ,66.5484  ,-38.01955 ,           0.0 ,           0.0 ,       0.0 ,-193.7061      ,-18.64894   ,0.01095729       ,0.0005138996     ,                 0.0 ,             0.0 ,             0.0 ,                 0.0 ,                 0.0 ,        0.0 ,3.0                    ,            0.0 ,            0.0 ,            0.0 ,              0.0 ,                   0.0 ,  0.0 ,0.0 , 921.0667102822451   ,1.0                ,0.0 ,-246.70729876524445 ,-490.0303633631287  ,-6.76866902311118       ,-245.48809795375857 ,          0.0 ,          0.0 ,-246.50415014149684 ,-490.2334862155129  ,-245.48809795375857 ,-982.2257343107683  ,141.01215302019625   ,327.4085874651154   ,244.24024556468086   ,-440.7117876934184    ,-684.0348265199393  ,-6.76866902311118       ,-439.49258688193254 ,          0.0 ,          0.0 ,-440.5086390696707   ,-684.2379751436868  ,-439.49258688193254 ,-1564.2389534102558 ,141.01215302019625   ,521.4130483087115    ,244.24024556468086   ,-1.5862830042133104e-06 ,-2.3642935968546667e-05 ,-9.461878457316175e-06  ,      0.0 ,      0.0 ,      0.0 ,-6.092352883730331e-07  ,-2.4619982076626363e-05 ,      0.0 ,-2.5229221525612038e-05 ,1.4046639729485839e-05 ,0.8358883319860708   ,0.45841457858475526     ,-0.0026143904843542944  ,-3.5055945996223506e-06 ,0.0030260464888641624  ,-99.9494076104537      ,0.0 ,-94.05248176540603    ,-94.05248176540603      ,        0.0 ,        0.0 , 0.0
 0.0 ,0.0 ,           0.0 ,            0.0 ,            0.0 ,            0.0 ,              0.0 ,                   0.0 ,1014.0 ,68.40106 ,-38.19507 ,           0.0 ,           0.0 ,       0.0 ,-195.4966      ,-18.64542   ,0.02216447       ,-0.0004307497    ,                 0.0 ,             0.0 ,             0.0 ,                 0.0 ,                 0.0 ,        0.0 ,2.4976922689291428     ,            0.0 ,            0.0 ,            0.0 ,              0.0 ,                   0.0 ,  0.0 ,0.0 , 917.8581342318103   ,0.9999999999999999 ,0.0 ,-249.2365309988236  ,-496.7275730727504  ,-9.35763396265703       ,-248.4340874013744  ,          0.0 ,          0.0 ,-248.87106131775445 ,-497.0929921103409  ,-248.4340874013744  ,-994.3981408294698  ,143.43740045188864   ,331.46605531495214  ,248.44084605913554   ,-444.4820198114595    ,-691.9730363572942  ,-9.35763396265703       ,-443.67960132939686 ,          0.0 ,          0.0 ,-444.1165752457769   ,-692.3385060383634  ,-443.67960132939686 ,-1580.1346371178872 ,143.43740045188864   ,526.711544127588     ,248.44084605913554   ,-1.4009259360389015e-06 ,-3.0040383844377646e-05 ,-9.263143076516983e-06  ,      0.0 ,      0.0 ,      0.0 ,-5.250199530658177e-07  ,-3.0916292164319796e-05 ,      0.0 ,-3.144131407743622e-05  ,1.770251614745322e-05  ,0.82577230045433     ,0.49072895006516487     ,-0.0019174515301661303  ,-2.801939493517237e-06  ,0.0028363123262937122  ,-94.95249434661986     ,0.0 ,-100.29111863165139   ,-100.29111863165139     ,        0.0 ,        0.0 , 0.0
 0.0 ,0.0 ,           0.0 ,            0.0 ,            0.0 ,            0.0 ,              0.0 ,                   0.0 ,1015.0 ,70.24339 ,-38.24065 ,           0.0 ,           0.0 ,       0.0 ,-195.9869      ,-18.64196   ,0.02844878       ,-0.0002103734    ,                 0.0 ,             0.0 ,             0.0 ,                 0.0 ,                 0.0 ,        0.0 ,2.5400471097944664     ,            0.0 ,            0.0 ,            0.0 ,              0.0 ,                   0.0 ,  0.0 ,0.0 , 917.5384428903582   ,1.0                ,0.0 ,-251.63493662742562 ,-503.41870699541846 ,-11.035718081935252     ,-251.15620445136764 ,          0.0 ,          0.0 ,-251.15212997854127 ,-503.9015153417302  ,-251.15620445136764 ,-1006.2098514690665 ,145.92378173659245   ,335.403314893119    ,252.74737209680015   ,-445.6803535712972    ,-697.4641743018138  ,-11.035718081935252     ,-445.2016221202868  ,          0.0 ,          0.0 ,-445.19759558750917  ,-697.946980950698   ,-445.2016221202868  ,-1588.3460502407302 ,145.92378173659245   ,529.4486838969417    ,252.74737209680015   ,-3.2264977839886817e-07 ,-5.0014968198995416e-05 ,-7.598684104068566e-06  ,      0.0 ,      0.0 ,      0.0 ,-3.366911982554389e-08  ,-5.030395559619665e-05  ,      0.0 ,-5.0337620094482465e-05 ,2.903359920634405e-05  ,0.6484061326609841   ,1.0                     ,-0.0022776505041627432  ,-1.0655015308260295e-05 ,0.0                    ,0.002277684337571301   ,0.0 ,-194.04546730639535   ,-194.04546730639535     ,        0.0 ,        0.0 , 0.0
 0.0 ,0.0 ,           0.0 ,            0.0 ,            0.0 ,            0.0 ,              0.0 ,                   0.0 ,1016.0 ,72.08799 ,-38.22513 ,           0.0 ,           0.0 ,       0.0 ,-195.8657      ,-18.63856   ,0.03150179       ,-0.0001570217    ,                 0.0 ,             0.0 ,             0.0 ,                 0.0 ,                 0.0 ,        0.0 ,3.431746596333722      ,            0.0 ,            0.0 ,            0.0 ,              0.0 ,                   0.0 ,  0.0 ,0.0 , 917.4458396835626   ,1.0                ,0.0 ,-251.9509366086998  ,-504.303673546096   ,-11.38998641423586      ,-251.69077031490644 ,          0.0 ,          0.0 ,-251.4375628797297  ,-504.81704699604313 ,-251.69077031490644 ,-1007.9454313883334 ,146.2156690823263    ,335.98177642401595  ,253.25297948009376   ,-447.1353929041939    ,-699.4881810392444  ,-11.38998641423586      ,-446.87527513372333 ,          0.0 ,          0.0 ,-446.6220679775695   ,-700.0015547682144  ,-446.87527513372333 ,-1593.4988496352075 ,146.2156690823263    ,531.1662839171644    ,253.25297948009376   ,2.5684955626460145e-06  ,-3.572389983002524e-05  ,-9.459886272247383e-06  ,      0.0 ,      0.0 ,      0.0 ,3.2401325348744393e-06  ,-3.6395532827070205e-05 ,      0.0 ,-3.3155406158479194e-05 ,2.206006239136306e-05  ,0.6490706646781719   ,1.0                     ,-0.003934501307235806   ,-2.9141765540452164e-05 ,0.0                    ,0.003934630393330085   ,0.0 ,-195.18450481881683   ,-195.18450481881683     ,        0.0 ,        0.0 , 0.0
 0.0 ,0.0 ,           0.0 ,            0.0 ,            0.0 ,            0.0 ,              0.0 ,                   0.0 ,1017.0 ,73.91612 ,-38.16931 ,           0.0 ,           0.0 ,       0.0 ,-195.3405      ,-18.63525   ,0.0347015        ,-0.0003293033    ,                 0.0 ,             0.0 ,             0.0 ,                 0.0 ,                 0.0 ,        0.0 ,2.5238136002067346     ,            0.0 ,            0.0 ,            0.0 ,              0.0 ,                   0.0 ,  0.0 ,0.0 , 921.0554501603433   ,1.0                ,0.0 ,-251.46047354604656 ,-504.5457047307656  ,-9.383318612287995      ,-251.76561709377333 ,          0.0 ,          0.0 ,-251.11246818177833 ,-504.89376088882057 ,-251.76561709377333 ,-1007.7718430464486 ,146.33271655234077   ,335.92391564318245  ,253.45568215661726   ,-444.8742617557132    ,-697.9595413814704  ,-9.383318612287995      ,-445.1794053034399  ,          0.0 ,          0.0 ,-444.5262563914449   ,-698.3075975395254  ,-445.1794053034399  ,-1588.0133646478591 ,146.33271655234077   ,529.3377522938872    ,253.45568215661726   ,1.7577550605429805e-06  ,-4.84469686502092e-05   ,-5.262690774379628e-06  ,      0.0 ,      0.0 ,      0.0 ,1.8981011642100486e-06  ,-4.858731405274159e-05  ,      0.0 ,-4.668921749842404e-05  ,2.8617284880285168e-05 ,0.8276157652047038   ,0.4908491029717907      ,-0.0010531718463430762  ,-3.214078061854274e-06  ,0.0012131232452605837  ,-93.73640624899213     ,0.0 ,-99.67634379916265    ,-99.67634379916265      ,        0.0 ,        0.0 , 0.0
 0.0 ,0.0 ,           0.0 ,            0.0 ,            0.0 ,            0.0 ,              0.0 ,                   0.0 ,1018.0 ,75.76079 ,-38.17351 ,           0.0 ,           0.0 ,       0.0 ,-195.4151      ,-18.632     ,0.03833989       ,0.0004001716     ,                 0.0 ,             0.0 ,             0.0 ,                 0.0 ,                 0.0 ,        0.0 ,2.4784144040800054     ,            0.0 ,            0.0 ,            0.0 ,              0.0 ,                   0.0 ,  0.0 ,0.0 , 920.0426103672124   ,0.9999999999999999 ,0.0 ,-250.2629659992299  ,-501.4209107561161  ,-6.793990510309136      ,-250.68094380746808 ,          0.0 ,          0.0 ,-250.06016386726174 ,-501.62376216856444 ,-250.68094380746808 ,-1002.364866879572  ,145.06162098983566   ,334.12159068155836  ,251.2540957610126    ,-443.75378440264865   ,-694.9117291595347  ,-6.793990510309136      ,-444.17176221088675 ,          0.0 ,          0.0 ,-443.55098227068044  ,-695.1145805719832  ,-444.17176221088675 ,-1582.83767721211   ,145.06162098983566   ,527.6124090849771    ,251.2540957610126    ,1.4079823775986442e-06  ,-4.8540590184005284e-05 ,-3.747331302983329e-06  ,      0.0 ,      0.0 ,      0.0 ,1.5031711941643443e-06  ,-4.863577355755419e-05  ,      0.0 ,-4.7132606581176396e-05 ,2.8528094111683584e-05 ,0.9922325439601495   ,0.01983136532519186     ,-6.661344296283996e-05  ,-1.9365385392162012e-07 ,0.002182551912377351   ,-189.03339852484072    ,0.0 ,-4.457373776377428    ,-4.457373776377428      ,        0.0 ,        0.0 , 0.0
 0.0 ,0.0 ,           0.0 ,            0.0 ,            0.0 ,            0.0 ,              0.0 ,                   0.0 ,1019.0 ,77.60602 ,-38.02884 ,           0.0 ,           0.0 ,       0.0 ,-194.0         ,-18.62884   ,0.03085838       ,0.003647748      ,                 0.0 ,             0.0 ,             0.0 ,                 0.0 ,                 0.0 ,        0.0 ,2.496900318847094      ,            0.0 ,            0.0 ,            0.0 ,              0.0 ,                   0.0 ,  0.0 ,0.0 , 922.1177388898057   ,1.0                ,0.0 ,-248.78661459563318 ,-499.5275055267316  ,-3.1199210160152244     ,-249.97785560586289 ,          0.0 ,          0.0 ,-248.7396654001604  ,-499.57445472220445 ,-249.97785560586289 ,-998.2920267727536  ,144.46443278771875   ,332.7639921542618   ,250.21973319902824   ,-440.8876759194536    ,-691.628516765634   ,-3.1199210160152244     ,-442.07891692968326 ,          0.0 ,          0.0 ,-440.84072672398077  ,-691.675465961107   ,-442.07891692968326 ,-1574.5952573261798 ,144.46443278771875   ,524.8650534780822    ,250.21973319902824   ,1.2465914920508047e-06  ,-4.821833349901052e-05  ,-2.321800234725143e-06  ,      0.0 ,      0.0 ,      0.0 ,1.2778435868171784e-06  ,-4.8249585721859914e-05 ,      0.0 ,-4.6971738226950024e-05 ,2.823574034006363e-05  ,0.8259718388873958   ,0.4998172522579985      ,-0.0011782147510355384  ,-2.7209417999952722e-05 ,0.0010319482311106647  ,-100.92099718085326    ,0.0 ,-91.17889190696546    ,-91.17889190696546      ,        0.0 ,        0.0 , 0.0
 0.0 ,0.0 ,           0.0 ,            0.0 ,            0.0 ,            0.0 ,              0.0 ,                   0.0 ,1020.0 ,79.54566 ,-38.00135 ,           0.0 ,           0.0 ,       0.0 ,-193.7568      ,-18.62568   ,0.007542141      ,0.003901745      ,                 0.0 ,             0.0 ,             0.0 ,                 0.0 ,                 0.0 ,        0.0 ,0.036858425958186114   ,            0.0 ,            0.0 ,            0.0 ,              0.0 ,                   0.0 ,  0.0 ,0.0 , 923.9119776320206   ,1.0                ,0.0 ,-247.71116410889803 ,-497.2457995378365  ,-0.23132897511576658    ,-249.47850272117094 ,          0.0 ,          0.0 ,-247.70734959994232 ,-497.24961404679215 ,-249.47850272117094 ,-994.4356142742866  ,143.56540555153586   ,331.47847250431795  ,248.66260556156652   ,-441.451587316878     ,-690.9862218243558  ,-0.23132897511576658    ,-443.21892592915094 ,          0.0 ,          0.0 ,-441.4477728079223   ,-690.9900363333114  ,-443.21892592915094 ,-1575.6570309373667 ,143.56540555153586   ,525.2189454887102    ,248.66260556156652   ,1.8789098650148786e-08  ,-4.5176349875628385e-07 ,-3.0301745066729815e-08 ,      0.0 ,      0.0 ,      0.0 ,1.9276422328954945e-08  ,-4.5225085929351596e-07 ,      0.0 ,-4.3297436324770906e-07 ,2.668458814768428e-07  ,0.9967982356985821   ,0.007636358888356447    ,-0.00011991243014358639 ,-5.005979644768038e-07  ,0.0015822890794894204  ,-192.0628954302483     ,0.0 ,-1.67750621097286     ,-1.67750621097286       ,        0.0 ,        0.0 , 0.0
 0.0 ,0.0 ,           0.0 ,            0.0 ,            0.0 ,            0.0 ,              0.0 ,                   0.0 ,1021.0 ,81.51974 ,-38.04102 ,           0.0 ,           0.0 ,       0.0 ,-194.1838      ,-18.62264   ,-0.0212747       ,0.002790432      ,                 0.0 ,             0.0 ,             0.0 ,                 0.0 ,                 0.0 ,        0.0 ,1.468011099716229      ,            0.0 ,            0.0 ,            0.0 ,              0.0 ,                   0.0 ,  0.0 ,0.0 , 925.8657782394877   ,1.0                ,0.0 ,-248.32519646739908 ,-497.74919523956777 ,2.591880739458595       ,-249.45042337913156 ,          0.0 ,          0.0 ,-248.29648501098634 ,-497.77795635087557 ,-249.45042337913156 ,-995.5248636592057  ,143.70664840456806   ,331.84160479862953  ,248.90719288749455   ,-441.11353596639276   ,-690.5375347385616  ,2.591880739458595       ,-442.23876287812527 ,          0.0 ,          0.0 ,-441.0848245099801   ,-690.5662958498694  ,-442.23876287812527 ,-1573.8898449982203 ,143.70664840456806   ,524.6299460696207    ,248.90719288749455   ,1.1328198137741832e-06  ,-4.1091662821653266e-05 ,2.5924703500656264e-07  ,      0.0 ,      0.0 ,      0.0 ,1.183422186778065e-06   ,-4.1142268006595784e-05 ,      0.0 ,-3.99588417449783e-05   ,2.4102751393368845e-05 ,0.6532548738183936   ,0.9822522013209372      ,-0.0026388102351247705  ,-5.393886308725696e-05  ,2.7957565602640095e-05 ,-3.2575992133334277    ,0.0 ,-189.5281034252161    ,-189.5281034252161      ,        0.0 ,        0.0 , 0.0
 0.0 ,0.0 ,           0.0 ,            0.0 ,            0.0 ,            0.0 ,              0.0 ,                   0.0 ,1022.0 ,83.48583 ,-38.12763 ,           0.0 ,           0.0 ,       0.0 ,-195.0778      ,-18.61985   ,-0.03601022      ,0.0007489228     ,                 0.0 ,             0.0 ,             0.0 ,                 0.0 ,                 0.0 ,        0.0 ,0.9861112973869783     ,            0.0 ,            0.0 ,            0.0 ,              0.0 ,                   0.0 ,  0.0 ,0.0 , 926.4686890700657   ,1.0                ,0.0 ,-248.13805560041368 ,-496.8980755238355  ,6.139358906169072       ,-249.05774497760547 ,          0.0 ,          0.0 ,-247.96906472597232 ,-497.06701697776793 ,-249.05774497760547 ,-994.0935814274476  ,143.50428981315866   ,331.3645758435433   ,248.55669267037882   ,-442.8185378771961    ,-691.578557800618   ,6.139358906169072       ,-443.7381769845949  ,          0.0 ,          0.0 ,-442.6495470027548   ,-691.7474992545505  ,-443.7381769845949  ,-1578.1356210037457 ,143.50428981315866   ,526.0450581203258    ,248.55669267037882   ,2.4202489093246315e-07  ,-1.661771689173286e-05  ,-7.546818462129818e-07  ,      0.0 ,      0.0 ,      0.0 ,2.5174219332097643e-07  ,-1.662743486354474e-05  ,      0.0 ,-1.6375694298203767e-05 ,9.673377529476306e-06  ,0.8225879617762688   ,0.49664091509366487     ,-0.0017550711217667562  ,-2.2580499276275434e-05 ,0.0006713797292474476  ,-93.68371159603248     ,0.0 ,-100.99513217897766   ,-100.99513217897766     ,        0.0 ,        0.0 , 0.0
 0.0 ,0.0 ,           0.0 ,            0.0 ,            0.0 ,            0.0 ,              0.0 ,                   0.0 ,1023.0 ,85.41867 ,-38.16792 ,           0.0 ,           0.0 ,       0.0 ,-195.5052      ,-18.6174    ,-0.03945775      ,-0.001373101     ,                 0.0 ,             0.0 ,             0.0 ,                 0.0 ,                 0.0 ,        0.0 ,2.570357153217647      ,            0.0 ,            0.0 ,            0.0 ,              0.0 ,                   0.0 ,  0.0 ,0.0 , 922.9312981834279   ,1.0                ,0.0 ,-250.57782384385197 ,-501.53247145958824 ,9.606801350457557       ,-250.69858910823137 ,          0.0 ,          0.0 ,-250.1851956314966  ,-501.92514732670514 ,-250.69858910823137 ,-1002.8088354798338 ,145.1943375669731    ,334.2696281372239   ,251.48390135346875   ,-444.2279459503733    ,-695.1825935661095  ,9.606801350457557       ,-444.3487105026445  ,          0.0 ,          0.0 ,-443.8352700832563   ,-695.5752694332264  ,-444.3487105026445  ,-1583.7589212734133 ,145.1943375669731    ,527.919750243745     ,251.48390135346875   ,1.2774167201514903e-06  ,-4.570264713669908e-05  ,3.300216823768973e-06   ,      0.0 ,      0.0 ,      0.0 ,1.3659763460029194e-06  ,-4.57912062574428e-05   ,      0.0 ,-4.4425230773313215e-05 ,2.684601713244756e-05  ,0.9905243359333508   ,0.025065983785205255    ,-0.00013869567397612248 ,-1.5572886434017838e-06 ,0.0019493787748134834  ,-188.17785990697882    ,0.0 ,-5.472159490521772    ,-5.472159490521772      ,        0.0 ,        0.0 , 0.0
 0.0 ,0.0 ,           0.0 ,            0.0 ,            0.0 ,            0.0 ,              0.0 ,                   0.0 ,1024.0 ,87.33455 ,-38.01323 ,           0.0 ,           0.0 ,       0.0 ,-193.9792      ,-18.61532   ,-0.04243614      ,-0.001823396     ,                 0.0 ,             0.0 ,             0.0 ,                 0.0 ,                 0.0 ,        0.0 ,3.9422658872486664     ,            0.0 ,            0.0 ,            0.0 ,              0.0 ,                   0.0 ,  0.0 ,0.0 , 924.3981182839393   ,1.0                ,0.0 ,-251.9758617197859  ,-503.6942876688125  ,11.845855225136779      ,-251.57893624163705 ,          0.0 ,          0.0 ,-251.41359359209588 ,-504.25655579650254 ,-251.57893624163705 ,-1007.2491376159372 ,145.93126500886063   ,335.74969521007847  ,252.7603678959536    ,-444.2407704463229    ,-695.9591963953494  ,11.845855225136779      ,-443.8437949069426  ,          0.0 ,          0.0 ,-443.67850231863287  ,-696.5214645230395  ,-443.8437949069426  ,-1584.0441079609056 ,145.93126500886063   ,528.0146039366155    ,252.7603678959536    ,7.071858370088769e-07   ,-4.407057237458097e-05  ,1.7714572878902126e-06  ,      0.0 ,      0.0 ,      0.0 ,7.273304339998404e-07   ,-4.4090716233952294e-05 ,      0.0 ,-4.336338769144733e-05  ,2.5668514059137758e-05 ,0.8243939108731606   ,0.4996250197561132      ,-0.001127516585932502   ,-2.886017976005907e-05  ,0.0009932217305506311  ,-90.8520485498902      ,0.0 ,-101.41183989320723   ,-101.41183989320723     ,        0.0 ,        0.0 , 0.0
 0.0 ,0.0 ,           0.0 ,            0.0 ,            0.0 ,            0.0 ,              0.0 ,                   0.0 ,1025.0 ,89.30527 ,-37.83715 ,           0.0 ,           0.0 ,       0.0 ,-192.2351      ,-18.61364   ,-0.04461109      ,-0.0001243696    ,                 0.0 ,             0.0 ,             0.0 ,                 0.0 ,                 0.0 ,        0.0 ,0.5182527745192239     ,            0.0 ,            0.0 ,            0.0 ,              0.0 ,                   0.0 ,  0.0 ,0.0 , 927.2141956860892   ,1.0                ,0.0 ,-251.24125716398927 ,-499.79658662773454 ,11.639966133624043      ,-249.77139456936112 ,          0.0 ,          0.0 ,-250.69448404200185 ,-500.34331065077066 ,-249.77139456936112 ,-1000.809239855106  ,144.4033385720453    ,333.60304672106076  ,250.11385886465584   ,-442.4770379424989    ,-691.0323674062442  ,11.639966133624043      ,-441.0071753478707  ,          0.0 ,          0.0 ,-441.93031391946283  ,-691.5791405282317  ,-441.0071753478707  ,-1574.5164358180098 ,144.4033385720453    ,524.8388765985218    ,250.11385886465584   ,8.253589973453812e-07   ,-2.291159205203706e-05  ,3.3380364478582212e-06  ,      0.0 ,      0.0 ,      0.0 ,9.424715725460827e-07   ,-2.3028707663124182e-05 ,      0.0 ,-2.2086234580798913e-05 ,1.3575890731831295e-05 ,1.0                  ,-0.0011777432793587605  ,-0.0003189261161491221  ,0.0                     ,0.0012870205238538187  ,-191.23578077850962    ,0.0 ,0.0                   ,0.0                     ,        0.0 ,        0.0 , 0.0
 0.0 ,0.0 ,           0.0 ,            0.0 ,            0.0 ,            0.0 ,              0.0 ,                   0.0 ,1026.0 ,91.35159 ,-37.74022 ,           0.0 ,           0.0 ,       0.0 ,-191.2767      ,-18.61255   ,-0.02971696      ,0.000501036      ,                 0.0 ,             0.0 ,             0.0 ,                 0.0 ,                 0.0 ,        0.0 ,2.9637311373484527     ,            0.0 ,            0.0 ,            0.0 ,              0.0 ,                   0.0 ,  0.0 ,0.0 , 928.7939360633621   ,1.0                ,0.0 ,-249.14401643595684 ,-492.3319315797034  ,8.894648910900145       ,-247.18820074166652 ,          0.0 ,          0.0 ,-248.80314018185166 ,-492.6728066248465  ,-247.18820074166652 ,-988.6640974014144  ,141.2692388465121    ,329.55468251612155  ,244.6854895339066    ,-441.62272378347103   ,-684.8106389272176  ,8.894648910900145       ,-439.66685944509305 ,          0.0 ,          0.0 ,-441.28184873832794  ,-685.1515151813227  ,-439.66685944509305 ,-1566.100316110971  ,141.2692388465121    ,522.0333910725979    ,244.6854895339066    ,-1.8312694012485692e-06 ,-1.1193697789692509e-05 ,-3.3353778759277532e-06 ,      0.0 ,      0.0 ,      0.0 ,-1.4835126483161292e-06 ,-1.15414545726822e-05   ,      0.0 ,-1.3024968193880082e-05 ,6.279173916060308e-06  ,1.0                  ,-0.0037900700210879348  ,-0.0006360528826776575  ,0.0                     ,0.0038634653997932414  ,-192.47865870342653    ,0.0 ,0.0                   ,0.0                     ,        0.0 ,        0.0 , 0.0
 0.0 ,0.0 ,           0.0 ,            0.0 ,            0.0 ,            0.0 ,              0.0 ,                   0.0 ,1027.0 ,93.43165 ,-37.70527 ,           0.0 ,           0.0 ,       0.0 ,-190.9293      ,-18.61234   ,-0.009348542     ,0.001126855      ,                 0.0 ,             0.0 ,             0.0 ,                 0.0 ,                 0.0 ,        0.0 ,1.5074034334510182     ,            0.0 ,            0.0 ,            0.0 ,              0.0 ,                   0.0 ,  0.0 ,0.0 , 930.9318134976132   ,1.0                ,0.0 ,-247.1614432797051  ,-488.03259263592633 ,5.810178348442814       ,-244.82815667882969 ,          0.0 ,          0.0 ,-247.0172848849142  ,-488.1767017267616  ,-244.82815667882969 ,-980.0221925944611  ,139.87086547842006   ,326.67404729947225  ,242.26340735581437   ,-438.69780842763436   ,-679.5690070878112  ,5.810178348442814       ,-436.36452313024984 ,          0.0 ,          0.0 ,-438.553699336799    ,-679.7131161786464  ,-436.36452313024984 ,-1554.6316399048874 ,139.87086547842006   ,518.210463099147     ,242.26340735581437   ,-1.0074260867545482e-06 ,-5.323153442252768e-06  ,-2.308746883159117e-06  ,      0.0 ,      0.0 ,      0.0 ,-7.097361096418706e-07  ,-5.620842432400354e-06  ,      0.0 ,-6.330579488573621e-06  ,3.061086274757856e-06  ,1.0                  ,-0.0016009046562215964  ,-0.0006812898690367204  ,0.0                     ,0.002228578679872802   ,-191.5363651036303     ,0.0 ,0.0                   ,0.0                     ,        0.0 ,        0.0 , 0.0
 0.0 ,0.0 ,           0.0 ,            0.0 ,            0.0 ,            0.0 ,              0.0 ,                   0.0 ,1028.0 ,95.50023 ,-37.73864 ,           0.0 ,           0.0 ,       0.0 ,-191.2539      ,-18.61325   ,0.004384894      ,0.0005703591     ,                 0.0 ,             0.0 ,             0.0 ,                 0.0 ,                 0.0 ,        0.0 ,1.0797550579156243     ,            0.0 ,            0.0 ,            0.0 ,              0.0 ,                   0.0 ,  0.0 ,0.0 , 934.8957697263386   ,1.0                ,0.0 ,-245.36675590231158 ,-485.9806883234311  ,3.101698072392911       ,-243.62125030823248 ,          0.0 ,          0.0 ,-245.3093036960792  ,-486.03809351148686 ,-243.62125030823248 ,-974.9686945339752  ,139.4750098267929    ,324.9895471840506   ,241.57782662990275   ,-436.39976063416145   ,-677.0137400734575  ,3.101698072392911       ,-434.65435101636444 ,          0.0 ,          0.0 ,-436.3423554461057   ,-677.0711452615133  ,-434.65435101636444 ,-1548.0682927065832 ,139.4750098267929    ,516.0226499040415    ,241.57782662990275   ,-1.3156794071525385e-06 ,-1.3408436479716544e-05 ,-2.2401185025517847e-06 ,      0.0 ,      0.0 ,      0.0 ,-1.2077005773687484e-06 ,-1.3516415269263154e-05 ,      0.0 ,-1.4724114357770147e-05 ,7.47957221296455e-06   ,1.0                  ,-0.0006092341777319801  ,-0.0006992561004023684  ,0.0                     ,0.00130039080772441    ,-191.03304973816756    ,0.0 ,0.0                   ,0.0                     ,        0.0 ,        0.0 , 0.0
 0.0 ,0.0 ,           0.0 ,            0.0 ,            0.0 ,            0.0 ,              0.0 ,                   0.0 ,1029.0 ,97.53091 ,-37.93628 ,           0.0 ,           0.0 ,       0.0 ,-193.2069      ,-18.61559   ,0.01156851       ,-0.0002130958    ,                 0.0 ,             0.0 ,             0.0 ,                 0.0 ,                 0.0 ,        0.0 ,2.9727031252295824     ,            0.0 ,            0.0 ,            0.0 ,              0.0 ,                   0.0 ,  0.0 ,0.0 , 933.777994576254    ,1.0                ,0.0 ,-244.7261601420172  ,-486.9455905643232  ,0.8316096052698777      ,-244.00349780936713 ,          0.0 ,          0.0 ,-244.71257165391378 ,-486.95913041727033 ,-244.00349780936713 ,-975.6751508756234  ,140.06631982075362   ,325.2250657169546   ,242.60195571949362   ,-436.94438234561477   ,-679.1638127679208  ,0.8316096052698777      ,-436.22172237288055 ,          0.0 ,          0.0 ,-436.9307938575114   ,-679.177352620868   ,-436.22172237288055 ,-1552.3300260452502 ,140.06631982075362   ,517.443339285396     ,242.60195571949362   ,-1.7346051867909596e-06 ,-3.189918261274135e-05  ,-4.489622714849998e-06  ,      0.0 ,      0.0 ,      0.0 ,-1.5182806098205035e-06 ,-3.211550735410586e-05  ,      0.0 ,-3.363378451141909e-05  ,1.8126466563997142e-05 ,0.6504131851921703   ,0.9763649203247757      ,-0.0007854783561156062  ,-0.0007248092901882828  ,4.322358170267787e-05  ,-4.26740838150827      ,0.0 ,-187.94974507892545   ,-187.94974507892545     ,        0.0 ,        0.0 , 0.0
 0.0 ,0.0 ,           0.0 ,            0.0 ,            0.0 ,            0.0 ,              0.0 ,                   0.0 ,1030.0 ,99.53434 ,-38.06312 ,           0.0 ,           0.0 ,       0.0 ,-194.4355      ,-18.61958   ,0.01088636       ,-0.0005850165    ,                 0.0 ,             0.0 ,             0.0 ,                 0.0 ,                 0.0 ,        0.0 ,1.0148245216559877     ,            0.0 ,            0.0 ,            0.0 ,              0.0 ,                   0.0 ,  0.0 ,0.0 , 933.7606789700053   ,1.0                ,0.0 ,-244.09965926451213 ,-486.8063205041837  ,-0.472185208566394      ,-243.8207276207703  ,          0.0 ,          0.0 ,-244.0973561893645  ,-486.8085743205574  ,-243.8207276207703  ,-974.726656803137   ,140.20936076726898   ,324.90890202063696  ,242.8496922172576    ,-438.3175474428783    ,-681.024159268879   ,-0.472185208566394      ,-438.03856638546563 ,          0.0 ,          0.0 ,-438.3152442128337   ,-681.0265117576974  ,-438.03856638546563 ,-1557.3802795801023 ,140.20936076726898   ,519.1267421128875    ,242.8496922172576    ,-5.698169991828845e-07  ,-1.3558316709449954e-05 ,-3.881236070841268e-06  ,      0.0 ,      0.0 ,      0.0 ,-2.85947654201416e-07   ,-1.3842187405564626e-05 ,      0.0 ,-1.4128133187945025e-05 ,7.910852434699925e-06  ,0.642260481974328    ,1.0                     ,0.0011178711035971607   ,-0.0010235605736419874  ,0.0                    ,0.0019551400313032787  ,0.0 ,-194.2178893510245    ,-194.2178893510245      ,        0.0 ,        0.0 , 0.0
 0.0 ,0.0 ,           0.0 ,            0.0 ,            0.0 ,            0.0 ,              0.0 ,                   0.0 ,1031.0 ,101.5195 ,-38.11847 ,           0.0 ,           0.0 ,       0.0 ,-194.9293      ,-18.62554   ,0.006922038      ,5.093458e-05     ,                 0.0 ,             0.0 ,             0.0 ,                 0.0 ,                 0.0 ,        0.0 ,1.0234505417307673     ,            0.0 ,            0.0 ,            0.0 ,              0.0 ,                   0.0 ,  0.0 ,0.0 , 933.2411966573201   ,1.0                ,0.0 ,-244.24656581563295 ,-487.41625846055655 ,-1.3843506345849006     ,-244.05359231447457 ,          0.0 ,          0.0 ,-244.23821510543078 ,-487.4245591564921  ,-244.05359231447457 ,-975.7163171840607  ,140.45705173043171   ,325.2387888683102   ,243.2787789987137    ,-439.002000539331     ,-682.1717431699881  ,-1.3843506345849006     ,-438.8090270381726  ,          0.0 ,          0.0 ,-438.9937492357321   ,-682.1800438944567  ,-438.8090270381726  ,-1559.9826214122209 ,140.45705173043171   ,519.9942735777418    ,243.2787789987137    ,-9.355876483762468e-08  ,-1.3316340882452752e-05 ,-5.416509359409277e-06  ,      0.0 ,      0.0 ,      0.0 ,4.4167729186855265e-07  ,-1.3851576267248308e-05 ,      0.0 ,-1.340990096472135e-05  ,8.127832768447353e-06  ,0.6447488391978659   ,0.9940682027905615      ,0.002205145842230269    ,-0.0011184430675783871  ,3.0153440504220825e-06 ,-1.200570970204103     ,0.0 ,-193.55248264820108   ,-193.55248264820108     ,        0.0 ,        0.0 , 0.0
 0.0 ,0.0 ,           0.0 ,            0.0 ,            0.0 ,            0.0 ,              0.0 ,                   0.0 ,1032.0 ,103.4925 ,-38.13516 ,           0.0 ,           0.0 ,       0.0 ,-195.0126      ,-18.63389   ,0.005099879      ,-4.040093e-05    ,                 0.0 ,             0.0 ,             0.0 ,                 0.0 ,                 0.0 ,        0.0 ,2.4889756955975617     ,            0.0 ,            0.0 ,            0.0 ,              0.0 ,                   0.0 ,  0.0 ,0.0 , 931.0967562277079   ,0.9999999999999999 ,0.0 ,-244.42548442166267 ,-488.53296951568564 ,-1.9143641493156438     ,-244.48404635158906 ,          0.0 ,          0.0 ,-244.41014978079616 ,-488.5483041565521  ,-244.48404635158906 ,-977.442474227911   ,140.9318701270554    ,325.8141497288356   ,244.10120638666916   ,-438.8796890445856    ,-682.9872246484194  ,-1.9143641493156438     ,-438.9382509745119  ,          0.0 ,          0.0 ,-438.8644299549342   ,-683.0025087794749  ,-438.9382509745119  ,-1560.8049405499657 ,140.9318701270554    ,520.2684299029738    ,244.10120638666916   ,-4.620538608504155e-08  ,-2.7574787355784063e-05 ,-9.425504370576395e-06  ,      0.0 ,      0.0 ,      0.0 ,7.669983532974837e-07   ,-2.8387990035520326e-05 ,      0.0 ,-2.762099516717189e-05  ,1.6616205083214027e-05 ,0.6434321178213944   ,0.9999999999999999      ,0.0019042682628649357   ,-0.001412481078508444   ,0.0                    ,0.0025386251927598394  ,0.0 ,-194.4542551327339    ,-194.4542551327339      ,        0.0 ,        0.0 , 0.0
 0.0 ,0.0 ,           0.0 ,            0.0 ,            0.0 ,            0.0 ,              0.0 ,                   0.0 ,1033.0 ,105.4585 ,-38.13553 ,           0.0 ,           0.0 ,       0.0 ,-194.9038      ,-18.64515   ,0.005069967      ,-9.260898e-05    ,                 0.0 ,             0.0 ,             0.0 ,                 0.0 ,                 0.0 ,        0.0 ,3.998443434856507      ,            0.0 ,            0.0 ,            0.0 ,              0.0 ,                   0.0 ,  0.0 ,0.0 , 935.921848391662    ,1.0                ,0.0 ,-244.72359187413178 ,-489.62053440484283 ,-2.0298607871869434     ,-244.73804103260503 ,          0.0 ,          0.0 ,-244.70669251491904 ,-489.6374337640556  ,-244.73804103260503 ,-979.0822174380007  ,141.40175206596678   ,326.3607225214739   ,244.91499217024648   ,-438.3020168230371    ,-683.1989593537481  ,-2.0298607871869434     ,-438.31646598151036 ,          0.0 ,          0.0 ,-438.28511754165265  ,-683.2158587129609  ,-438.31646598151036 ,-1559.8169926545006 ,141.40175206596678   ,519.9391475482075    ,244.91499217024648   ,-2.548779275257e-07     ,-3.390386097707554e-05  ,-7.971851195015924e-06  ,      0.0 ,      0.0 ,      0.0 ,2.1405395081427874e-07  ,-3.437279365605799e-05  ,      0.0 ,-3.415874364502088e-05  ,1.990755675160378e-05  ,0.821554789335559    ,0.5036313213777374      ,0.00014163444661616654  ,-0.00026908879864167803 ,0.0018544091914815114  ,-91.73369590556172     ,0.0 ,-101.84359756563562   ,-101.84359756563562     ,        0.0 ,        0.0 , 0.0
 0.0 ,0.0 ,           0.0 ,            0.0 ,            0.0 ,            0.0 ,              0.0 ,                   0.0 ,1034.0 ,107.4205 ,-38.13112 ,           0.0 ,           0.0 ,       0.0 ,-194.7127      ,-18.65985   ,0.004748726      ,-5.246399e-05    ,                 0.0 ,             0.0 ,             0.0 ,                 0.0 ,                 0.0 ,        0.0 ,3.996747327455344      ,            0.0 ,            0.0 ,            0.0 ,              0.0 ,                   0.0 ,  0.0 ,0.0 , 937.1257595672344   ,1.0                ,0.0 ,-244.7775823020238  ,-489.8693668757544  ,-2.0453834179400032     ,-244.79237663550725 ,          0.0 ,          0.0 ,-244.7604819268921  ,-489.8864672508862  ,-244.79237663550725 ,-979.4393258132854  ,141.51436916544952   ,326.4797752071591   ,245.10998798220479   ,-438.24262268860724   ,-683.3344071539154  ,-2.0453834179400032     ,-438.25746692618657 ,          0.0 ,          0.0 ,-438.22552220505315  ,-683.3515575415654  ,-438.25746692618657 ,-1559.834446747915  ,141.51436916544952   ,519.9448155937425    ,245.10998798220479   ,-2.958351759256834e-07  ,-3.2937532230749436e-05 ,-8.149185412105863e-06  ,      0.0 ,      0.0 ,      0.0 ,2.1352788995170732e-07  ,-3.344689856539664e-05  ,      0.0 ,-3.32333698111614e-05   ,1.9372885571878405e-05 ,0.8225056485393283   ,0.5017201286607404      ,0.0014808081723326652   ,-0.00038137668882191054 ,0.001861549314325138   ,-92.08556788366741     ,0.0 ,-101.37705179329078   ,-101.37705179329078     ,        0.0 ,        0.0 , 0.0
 0.0 ,0.0 ,           0.0 ,            0.0 ,            0.0 ,            0.0 ,              0.0 ,                   0.0 ,1035.0 ,109.3799 ,-38.126   ,           0.0 ,           0.0 ,       0.0 ,-194.4741      ,-18.67859   ,0.004068934      ,-3.713404e-05    ,                 0.0 ,             0.0 ,             0.0 ,                 0.0 ,                 0.0 ,        0.0 ,1.9981249127217489     ,            0.0 ,            0.0 ,            0.0 ,              0.0 ,                   0.0 ,  0.0 ,0.0 , 938.1230180685855   ,1.0                ,0.0 ,-244.63597576534295 ,-489.3761992969482  ,-1.7520397934730578     ,-244.7233437936473  ,          0.0 ,          0.0 ,-244.62317296211415 ,-489.38905200642256 ,-244.7233437936473  ,-978.7355188559384  ,141.28674625830132   ,326.24513969447247  ,244.71579368541165   ,-439.0982752638785    ,-683.8384487017294  ,-1.7520397934730578     ,-439.1856432921829  ,          0.0 ,          0.0 ,-439.08537246064975  ,-683.8513015987126  ,-439.1856432921829  ,-1562.1222679340567 ,141.28674625830132   ,520.7074390792685    ,244.71579368541165   ,-2.8559442112672963e-07 ,-2.1875388440734537e-05 ,-5.200296824665154e-06  ,      0.0 ,      0.0 ,      0.0 ,2.55874816759626e-08    ,-2.2186572892216733e-05 ,      0.0 ,-2.2160984413442748e-05 ,1.2832469254995869e-05 ,0.8221605221666218   ,0.5086693236411667      ,0.0010039712280472436   ,-0.0010051203158160215  ,0.007794646899668825   ,-102.3825777143611     ,0.0 ,-92.07749060753987    ,-92.07749060753987      ,        0.0 ,        0.0 , 0.0
 0.0 ,0.0 ,           0.0 ,            0.0 ,            0.0 ,            0.0 ,              0.0 ,                   0.0 ,1036.0 ,111.3376 ,-38.12147 ,           0.0 ,           0.0 ,       0.0 ,-194.1955      ,-18.70192   ,0.003234779      ,-2.657204e-05    ,                 0.0 ,             0.0 ,             0.0 ,                 0.0 ,                 0.0 ,        0.0 ,0.9989287628248263     ,            0.0 ,            0.0 ,            0.0 ,              0.0 ,                   0.0 ,  0.0 ,0.0 , 939.1077994710768   ,1.0                ,0.0 ,-245.15896804703073 ,-491.02691629487845 ,-1.649694505435316      ,-245.22730032767754 ,          0.0 ,          0.0 ,-245.14782315780695 ,-491.0380611841023  ,-245.22730032767754 ,-981.4132345874881  ,141.9418749483623    ,327.13777816012146  ,245.85052485734235   ,-438.0783669901673    ,-683.9463151809415  ,-1.649694505435316      ,-438.1467491887155  ,          0.0 ,          0.0 ,-438.06722204386995  ,-683.957460127239   ,-438.1467491887155  ,-1560.1716816561704 ,141.9418749483623    ,520.0571271282831    ,245.85052485734235   ,-9.434059183973008e-07  ,-3.3292708787203516e-05 ,-1.0567202826870863e-05 ,      0.0 ,      0.0 ,      0.0 ,-9.18599141938376e-08   ,-3.414425504088234e-05  ,      0.0 ,-3.4236114007891664e-05 ,1.9691169561609696e-05 ,0.6454866296216017   ,1.0                     ,0.006448335199657771    ,-0.0015951216054609007  ,0.0                    ,0.00670988328450468    ,0.0 ,-192.91939894313657   ,-192.91939894313657     ,        0.0 ,        0.0 , 0.0
 0.0 ,0.0 ,           0.0 ,            0.0 ,            0.0 ,            0.0 ,              0.0 ,                   0.0 ,1037.0 ,113.2939 ,-38.11779 ,           0.0 ,           0.0 ,       0.0 ,-193.875       ,-18.7303    ,0.002476651      ,-1.347564e-05    ,                 0.0 ,             0.0 ,             0.0 ,                 0.0 ,                 0.0 ,        0.0 ,1.0004510287735398     ,            0.0 ,            0.0 ,            0.0 ,              0.0 ,                   0.0 ,  0.0 ,0.0 , 940.0804611899107   ,1.0                ,0.0 ,-244.83828701296113 ,-490.27284483217954 ,-1.1032431865726848     ,-245.11523392602828 ,          0.0 ,          0.0 ,-244.83328690327534 ,-490.27784494186534 ,-245.11523392602828 ,-980.226365771169   ,141.62618069198828   ,326.7421385420401   ,245.30380953208353   ,-438.68744221454574   ,-684.1220000337642  ,-1.1032431865726848     ,-438.96438904381284 ,          0.0 ,          0.0 ,-438.68244210485994  ,-684.12700014345    ,-438.96438904381284 ,-1561.774031156814  ,141.62618069198828   ,520.5912937436246    ,245.30380953208353   ,2.1997366862040134e-07  ,-1.0112007552310074e-05 ,-3.851823395282166e-06  ,      0.0 ,      0.0 ,      0.0 ,5.672937578780826e-07   ,-1.0459330888173197e-05 ,      0.0 ,-9.892036127330083e-06  ,6.208944505699932e-06  ,0.6451768605840715   ,1.0                     ,0.015031746401483161    ,-0.0026965479658981727  ,0.0                    ,0.015324382194612119   ,0.0 ,-193.8491552015846    ,-193.8491552015846      ,        0.0 ,        0.0 , 0.0
 0.0 ,0.0 ,           0.0 ,            0.0 ,            0.0 ,            0.0 ,              0.0 ,                   0.0 ,1038.0 ,115.249  ,-38.11427 ,           0.0 ,           0.0 ,       0.0 ,-193.5025      ,-18.76402   ,0.001773491      ,2.860759e-06     ,                 0.0 ,             0.0 ,             0.0 ,                 0.0 ,                 0.0 ,        0.0 ,1.001079853363233      ,            0.0 ,            0.0 ,            0.0 ,              0.0 ,                   0.0 ,  0.0 ,0.0 , 941.0708795595987   ,1.0                ,0.0 ,-245.10714555193496 ,-490.8609910676853  ,-0.7828006258575504     ,-245.3245423984058  ,          0.0 ,          0.0 ,-245.10424511495572 ,-490.8638914357555  ,-245.3245423984058  ,-981.292678949117   ,141.8258691739456    ,327.09755965965     ,245.64962267161647   ,-438.5887627807584    ,-684.3426082275995  ,-0.7828006258575504     ,-438.80610964214566 ,          0.0 ,          0.0 ,-438.58586234377907  ,-684.3455586105861  ,-438.80610964214566 ,-1561.7374305965106 ,141.8258691739456    ,520.5791768884733    ,245.64962267161647   ,4.42557723922554e-07    ,-1.0074660999174668e-05 ,-3.976878475064694e-06  ,      0.0 ,      0.0 ,      0.0 ,8.059500974127205e-07   ,-1.0438053725316783e-05 ,      0.0 ,-9.632101129338975e-06  ,6.272032232775224e-06  ,0.6455596279770137   ,0.9993239864079855      ,0.017761551876667808    ,-0.002956417693307579   ,1.3457809187635672e-05 ,-0.10858269885631375   ,0.0 ,-193.35496180968      ,-193.35496180968        ,        0.0 ,        0.0 , 0.0
 0.0 ,0.0 ,           0.0 ,            0.0 ,            0.0 ,            0.0 ,              0.0 ,                   0.0 ,1039.0 ,117.2029 ,-38.1108  ,           0.0 ,           0.0 ,       0.0 ,-193.077       ,-18.8031    ,0.001217996      ,2.859078e-06     ,                 0.0 ,             0.0 ,             0.0 ,                 0.0 ,                 0.0 ,        0.0 ,1.4999775441939733     ,            0.0 ,            0.0 ,            0.0 ,              0.0 ,                   0.0 ,  0.0 ,0.0 , 942.0529917577767   ,1.0                ,0.0 ,-245.64983687481575 ,-491.94456084132594 ,-0.6561225132110236     ,-245.77461944033917 ,          0.0 ,          0.0 ,-245.64803690176268 ,-491.9463608188701  ,-245.77461944033917 ,-983.3689672014066  ,142.1638945234153    ,327.7896723997203   ,246.23508266691368   ,-438.36582361662767   ,-684.6604975853834  ,-0.6561225132110236     ,-438.4905562225856  ,          0.0 ,          0.0 ,-438.36397364132904  ,-684.6622975584364  ,-438.4905562225856  ,-1561.5167774672768 ,142.1638945234153    ,520.5056591415322    ,246.23508266691368   ,1.0306676235785266e-06  ,-2.067359087443782e-05  ,-8.587688149834705e-06  ,      0.0 ,      0.0 ,      0.0 ,1.8592071190117975e-06  ,-2.1502132819417355e-05 ,      0.0 ,-1.9642928198765718e-05 ,1.2985418320376492e-05 ,1.0                  ,0.015946628315754902    ,-0.0027154563653333887  ,0.0                     ,0.01623570360532095    ,-192.7159867418119     ,0.0 ,0.0                   ,0.0                     ,        0.0 ,        0.0 , 0.0
 0.0 ,0.0 ,           0.0 ,            0.0 ,            0.0 ,            0.0 ,              0.0 ,                   0.0 ,1040.0 ,119.1558 ,-38.10698 ,           0.0 ,           0.0 ,       0.0 ,-192.5978      ,-18.84721   ,0.0006968151     ,2.386036e-05     ,                 0.0 ,             0.0 ,             0.0 ,                 0.0 ,                 0.0 ,        0.0 ,0.5012717192525342     ,            0.0 ,            0.0 ,            0.0 ,              0.0 ,                   0.0 ,  0.0 ,0.0 , 943.0569636749947   ,1.0                ,0.0 ,-245.87070713385177 ,-492.54271676953215 ,-0.2670252106131688     ,-246.04391452703425 ,          0.0 ,          0.0 ,-245.87010745578573 ,-492.54336632277057 ,-246.04391452703425 ,-984.4573384327625  ,142.3667189860505    ,328.1524461162542   ,246.58640533136057   ,-438.1100841237978    ,-684.7820938434782  ,-0.2670252106131688     ,-438.2832916009802  ,          0.0 ,          0.0 ,-438.1094345705594   ,-684.7826934375443  ,-438.2832916009802  ,-1561.1752196161165 ,142.3667189860505    ,520.3918231902001    ,246.58640533136057   ,8.82043075876482e-07    ,-1.268434788802979e-05  ,-4.113541084100311e-06  ,      0.0 ,      0.0 ,      0.0 ,1.187032089833024e-06   ,-1.2989336902826331e-05 ,      0.0 ,-1.1802304815513303e-05 ,7.864511510870042e-06  ,1.0                  ,0.01890726186363957     ,-0.0017250117920228876  ,0.0                     ,0.019036679464677003   ,-192.2393770739459     ,0.0 ,0.0                   ,0.0                     ,        0.0 ,        0.0 , 0.0
 0.0 ,0.0 ,           0.0 ,            0.0 ,            0.0 ,            0.0 ,              0.0 ,                   0.0 ,1041.0 ,121.1023 ,-38.1041  ,           0.0 ,           0.0 ,       0.0 ,-192.0864      ,-18.89545   ,-7.371902e-05    ,3.236941e-05     ,                 0.0 ,             0.0 ,             0.0 ,                 0.0 ,                 0.0 ,        0.0 ,1.4997265213810835     ,            0.0 ,            0.0 ,            0.0 ,              0.0 ,                   0.0 ,  0.0 ,0.0 , 944.0433807975083   ,0.9999999999999999 ,0.0 ,-246.27821243123884 ,-493.1574929437852  ,-0.1311820384992186     ,-246.38742467513825 ,          0.0 ,          0.0 ,-246.2780624585867  ,-493.1575429776257  ,-246.38742467513825 ,-985.8228804641183  ,142.50438004784723   ,328.60766004839707  ,246.82482445827767   ,-438.2162976930962    ,-685.095628239483   ,-0.1311820384992186     ,-438.32555997083614 ,          0.0 ,          0.0 ,-438.21619775428456  ,-685.0956782733235  ,-438.32555997083614 ,-1561.63728571985   ,142.50438004784723   ,520.545845249066     ,246.82482445827767   ,2.0555361536426602e-06  ,-1.3862947980929098e-05 ,-4.705545993187378e-06  ,      0.0 ,      0.0 ,      0.0 ,2.4176756260156795e-06  ,-1.4225086456491392e-05 ,      0.0 ,-1.1807412331490927e-05 ,8.993433066843249e-06  ,0.8235080754424834   ,0.5116085942859842      ,0.006089402962750347    ,-0.00021546645935441154 ,0.012674211736208408   ,-91.62938037885647     ,0.0 ,-100.30095719025118   ,-100.30095719025118     ,        0.0 ,        0.0 , 0.0
 0.0 ,0.0 ,           0.0 ,            0.0 ,            0.0 ,            0.0 ,              0.0 ,                   0.0 ,1042.0 ,121.1098 ,-36.20791 ,           0.0 ,           0.0 ,       0.0 ,-173.1679      ,-18.89111   ,-0.001691886     ,5.590734e-05     ,                 0.0 ,             0.0 ,             0.0 ,                 0.0 ,                 0.0 ,        0.0 ,1.9995163419168536     ,            0.0 ,            0.0 ,            0.0 ,              0.0 ,                   0.0 ,  0.0 ,0.0 , 944.9067707639185   ,1.0                ,0.0 ,-238.44062701185314 ,-477.68164345488617 ,-0.1319623806972724     ,-238.65832474731673 ,          0.0 ,          0.0 ,-238.44047708393276 ,-477.68169338280654 ,-238.65832474731673 ,-954.7805949722269  ,138.06317352517914   ,318.2601650552301   ,239.1323924667127    ,-411.6180069161765    ,-650.8591233108436  ,-0.1319623806972724     ,-411.8358046032743  ,          0.0 ,          0.0 ,-411.6179569398903   ,-650.8591732387641  ,-411.8358046032743  ,-1474.3129349251499 ,138.06317352517914   ,491.4376449595535    ,239.1323924667127    ,4.509190752645486e-06   ,-1.533893408143073e-05  ,-2.4207507067872755e-06 ,      0.0 ,      0.0 ,      0.0 ,4.612958263123486e-06   ,-1.54427025899741e-05   ,      0.0 ,-1.0829745824688227e-05 ,1.0523103612850563e-05 ,0.8213755052929574   ,0.5132380454260577      ,0.012825020370800844    ,-0.0020041587965639648  ,0.01263232304759995    ,-91.30529992606424     ,0.0 ,-81.85751608482798    ,-81.85751608482798      ,        0.0 ,        0.0 , 0.0
 0.0 ,0.0 ,           0.0 ,            0.0 ,            0.0 ,            0.0 ,              0.0 ,                   0.0 ,1043.0 ,121.1128 ,-34.31094 ,           0.0 ,           0.0 ,       0.0 ,-154.2785      ,-18.88309   ,-0.00259637      ,2.737731e-05     ,                 0.0 ,             0.0 ,             0.0 ,                 0.0 ,                 0.0 ,        0.0 ,1.4988254416223386     ,            0.0 ,            0.0 ,            0.0 ,              0.0 ,                   0.0 ,  0.0 ,0.0 , 946.0006500030283   ,1.0                ,0.0 ,-230.69779421677276 ,-463.0382035901946  ,-0.19690839851176556    ,-231.1202765957073  ,          0.0 ,          0.0 ,-230.69754427533115 ,-463.0384035903883  ,-231.1202765957073  ,-924.8563243440194  ,134.0202280111671    ,308.28540815380893  ,232.12986841925365   ,-384.7087282329521    ,-617.0491875476217  ,-0.19690839851176556    ,-385.1313104944793  ,          0.0 ,          0.0 ,-384.70852817405466  ,-617.0493875478155  ,-385.1313104944793  ,-1386.8891759812923 ,134.0202280111671    ,462.2963921112361    ,232.12986841925365   ,7.330283504672557e-06   ,-2.4785775748915938e-05 ,-2.490115087406825e-06  ,      0.0 ,      0.0 ,      0.0 ,7.380469864138431e-06   ,-2.483596460779623e-05  ,      0.0 ,-1.745549724366022e-05  ,1.689105453225911e-05  ,0.643805318556581    ,0.9994311343901171      ,0.022977614708209193    ,-0.004883431181982369   ,1.8418450616961306e-05 ,-0.061245897574029325  ,0.0 ,-153.92614372477192   ,-153.92614372477192     ,        0.0 ,        0.0 , 0.0
 0.0 ,0.0 ,           0.0 ,            0.0 ,            0.0 ,            0.0 ,              0.0 ,                   0.0 ,1044.0 ,121.1144 ,-32.41406 ,           0.0 ,           0.0 ,       0.0 ,-135.4356      ,-18.87051   ,-0.003450795     ,8.126386e-05     ,                 0.0 ,             0.0 ,             0.0 ,                 0.0 ,                 0.0 ,        0.0 ,0.5014342411165901     ,            0.0 ,            0.0 ,            0.0 ,              0.0 ,                   0.0 ,  0.0 ,0.0 , 946.944022475976    ,1.0                ,0.0 ,-222.90726746290568 ,-447.9672213636437  ,-0.15741327797354118    ,-223.51810777376667 ,          0.0 ,          0.0 ,-222.9071175942446  ,-447.9673712323048  ,-223.51810777376667 ,-894.392496693918   ,129.76260093197672   ,298.1308488501646   ,224.75540808331107   ,-358.04668710371567   ,-583.1066909606741  ,-0.15741327797354118    ,-358.65752742061926 ,          0.0 ,          0.0 ,-358.0464872848769   ,-583.1067908731148  ,-358.65752742061926 ,-1299.8108555469166 ,129.76260093197672   ,433.270318447195     ,224.75540808331107   ,4.8565683317567695e-06  ,-1.825898177564687e-05  ,-1.5251973674650561e-06 ,      0.0 ,      0.0 ,      0.0 ,4.881704881658924e-06   ,-1.828412182248445e-05  ,      0.0 ,-1.3402415941701117e-05 ,1.2212144471093501e-05 ,0.9996625146776117   ,0.02578882669868266     ,-0.006836863555095904   ,-8.961982201293483e-06  ,0.026006036802834264   ,-135.0217462722316     ,0.0 ,-0.11768789015971076  ,-0.11768789015971076    ,        0.0 ,        0.0 , 0.0
 0.0 ,0.0 ,           0.0 ,            0.0 ,            0.0 ,            0.0 ,              0.0 ,                   0.0 ,1045.0 ,121.1139 ,-30.51649 ,           0.0 ,           0.0 ,       0.0 ,-116.6485      ,-18.85165   ,-0.004426355     ,3.276532e-05     ,                 0.0 ,             0.0 ,             0.0 ,                 0.0 ,                 0.0 ,        0.0 ,2.0010359594249385     ,            0.0 ,            0.0 ,            0.0 ,              0.0 ,                   0.0 ,  0.0 ,0.0 , 947.9106795201244   ,1.0                ,0.0 ,-215.27086028202032 ,-432.16044975281557 ,-0.1371507137193684     ,-215.7296223704053  ,          0.0 ,          0.0 ,-215.27076042103022 ,-432.16054971740164 ,-215.7296223704053  ,-863.160932405241   ,125.08917870737275   ,287.7203108244744   ,216.66078314659848   ,-332.056083315502     ,-548.9457227167923  ,-0.1371507137193684     ,-332.514845403887   ,          0.0 ,          0.0 ,-332.05603338500697  ,-548.9457726472874  ,-332.514845403887   ,-1213.5167508827878 ,125.08917870737275   ,404.50553385795615   ,216.66078314659848   ,1.2010732180857136e-05  ,-2.7292873894833334e-05 ,-2.2508673321644146e-06 ,      0.0 ,      0.0 ,      0.0 ,1.2045468110745806e-05  ,-2.7327609820578167e-05 ,      0.0 ,-1.5282146704953782e-05 ,2.018256481740171e-05  ,0.8198459164251488   ,0.5175922232807209      ,0.007804852999056215    ,-0.0047840234326721656  ,0.02078062527684129    ,-53.9429709781127      ,0.0 ,-62.823336581112976   ,-62.823336581112976     ,        0.0 ,        0.0 , 0.0
 0.0 ,0.0 ,           0.0 ,            0.0 ,            0.0 ,            0.0 ,              0.0 ,                   0.0 ,1046.0 ,121.1118 ,-28.61753 ,           0.0 ,           0.0 ,       0.0 ,-97.93948      ,-18.82358   ,-0.005357717     ,3.408087e-05     ,                 0.0 ,             0.0 ,             0.0 ,                 0.0 ,                 0.0 ,        0.0 ,3.4979175236751217     ,            0.0 ,            0.0 ,            0.0 ,              0.0 ,                   0.0 ,  0.0 ,0.0 , 948.8740942903821   ,1.0                ,0.0 ,-207.92354339061507 ,-416.2699929859165  ,0.044745371682156296    ,-207.9857108942336  ,          0.0 ,          0.0 ,-207.92354339061507 ,-416.27004297307064 ,-207.9857108942336  ,-832.179247270765   ,120.27118716558515   ,277.3931157200728   ,208.3158653588777    ,-305.9469271838733    ,-514.2933767791748  ,0.044745371682156296    ,-306.0090946874918  ,          0.0 ,          0.0 ,-305.9469271838733   ,-514.2933767791748  ,-306.0090946874918  ,-1126.249049326666  ,120.27118716558515   ,375.41644961103196   ,208.3158653588777    ,8.015730218271445e-06   ,-2.2834647625040545e-05 ,1.9253773826492755e-06  ,      0.0 ,      0.0 ,      0.0 ,8.054289309937866e-06   ,-2.28732047172208e-05   ,      0.0 ,-1.4818916407026015e-05 ,1.6072332762381616e-05 ,0.818824014274594    ,0.5308077811260327      ,0.00395210373685272     ,-0.010330783939044661   ,0.033221369266994136   ,-53.856531717202316    ,0.0 ,-44.14974669356984    ,-44.14974669356984      ,        0.0 ,        0.0 , 0.0
 0.0 ,0.0 ,           0.0 ,            0.0 ,            0.0 ,            0.0 ,              0.0 ,                   0.0 ,1047.0 ,121.1074 ,-26.7163  ,           0.0 ,           0.0 ,       0.0 ,-79.35295      ,-18.78101   ,-0.006224804     ,3.506929e-05     ,                 0.0 ,             0.0 ,             0.0 ,                 0.0 ,                 0.0 ,        0.0 ,1.9987339133831354     ,            0.0 ,            0.0 ,            0.0 ,              0.0 ,                   0.0 ,  0.0 ,0.0 , 949.9632963002929   ,1.0                ,0.0 ,-199.92321083609522 ,-401.5437996425456  ,0.05931091696071427     ,-200.36015425212494 ,          0.0 ,          0.0 ,-199.92321081850565 ,-401.54384968885574 ,-200.36015425212494 ,-801.8271647336974  ,116.27980875628438   ,267.2757215567977   ,201.4025170738373    ,-278.9287261521311    ,-480.54931495564995 ,0.05931091696071427     ,-279.3656195394403  ,          0.0 ,          0.0 ,-278.928676105821    ,-480.5493149761711  ,-279.3656195394403  ,-1038.8435107421778 ,116.27980875628438   ,346.2811869044858    ,201.4025170738373    ,5.234044524298149e-06   ,-1.7716142810210612e-05 ,9.906789600535696e-07   ,      0.0 ,      0.0 ,      0.0 ,5.244732753899965e-06   ,-1.7726831039812428e-05 ,      0.0 ,-1.2482098285912464e-05 ,1.2037719774949991e-05 ,0.8185735302323186   ,0.5295549110968097      ,-0.000362273160025976   ,-0.01034560595177479    ,0.03296105233603375    ,-34.778080864512134    ,0.0 ,-44.21027502294963    ,-44.21027502294963      ,        0.0 ,        0.0 , 0.0
 0.0 ,0.0 ,           0.0 ,            0.0 ,            0.0 ,            0.0 ,              0.0 ,                   0.0 ,1048.0 ,121.1002 ,-24.81261 ,           0.0 ,           0.0 ,       0.0 ,-60.9873       ,-18.71388   ,-0.006776528     ,-3.360675e-05    ,                 0.0 ,             0.0 ,             0.0 ,                 0.0 ,                 0.0 ,        0.0 ,0.4986475818553373     ,            0.0 ,            0.0 ,            0.0 ,              0.0 ,                   0.0 ,  0.0 ,0.0 , 863.0859824462169   ,1.0                ,0.0 ,-191.9920253169884  ,-385.56268055852655 ,-0.15329431897875484    ,-192.42600328056693 ,          0.0 ,          0.0 ,-191.99114474485762 ,-385.5636278713143  ,-192.42600328056693 ,-769.9807091560817  ,111.63386282396965   ,256.66021967361337  ,193.3555028531004    ,-253.03436890587082   ,-446.6050075419938  ,-0.15329431897875484    ,-253.46828012879237 ,          0.0 ,          0.0 ,-253.0334049876679   ,-446.6059047195397  ,-253.46828012879237 ,-953.107689836      ,111.63386282396965   ,317.7025632624958    ,193.3555028531004    ,4.677801707968107e-06   ,-1.322941797173627e-05  ,-6.065186054397232e-07  ,      0.0 ,      0.0 ,      0.0 ,4.74099020862844e-06    ,-1.3292606972014443e-05 ,      0.0 ,-8.551616762900873e-06  ,9.502254892443357e-06  ,0.9387226385702818   ,0.2124825447679038      ,-0.038926723046677845   ,-0.007180041220223773   ,0.06631595086326095    ,-52.40724833602032     ,0.0 ,-8.627770498686743    ,-8.627770498686743      ,        0.0 ,        0.0 , 0.0
 0.0 ,0.0 ,           0.0 ,            0.0 ,            0.0 ,            0.0 ,              0.0 ,                   0.0 ,1049.0 ,119.1459 ,-24.81782 ,           0.0 ,           0.0 ,       0.0 ,-61.93687      ,-18.62414   ,-0.002694615     ,8.860189e-05     ,                 0.0 ,             0.0 ,             0.0 ,                 0.0 ,                 0.0 ,        0.0 ,0.49942773730973256    ,            0.0 ,            0.0 ,            0.0 ,              0.0 ,                   0.0 ,  0.0 ,0.0 , 920.0611885745855   ,1.0                ,0.0 ,-191.7452341462071  ,-385.6952671695418  ,-0.2786314145849479     ,-192.28307989718854 ,          0.0 ,          0.0 ,-191.7445844281374  ,-385.6959418964491  ,-192.28307989718854 ,-769.7236062613262  ,111.82278376282609   ,256.57451873469995  ,193.6827603935534    ,-252.89946323891422   ,-446.84947121386017 ,-0.2786314145849479     ,-253.43728398105816 ,          0.0 ,          0.0 ,-252.89878851200694  ,-446.85014598031864 ,-253.43728398105816 ,-953.1862683766063  ,111.82278376282609   ,317.7287478274071    ,193.6827603935534    ,2.789339871671943e-06   ,-2.5254272724453605e-05 ,2.112927929380811e-06   ,      0.0 ,      0.0 ,      0.0 ,2.829082832723839e-06   ,-2.5294017183788716e-05 ,      0.0 ,-2.2464933851637136e-05 ,1.548493678927369e-05  ,0.7249287695616031   ,0.7648293887978933      ,0.0036743669905319725   ,-0.03134580898270667    ,0.016476887540268926   ,-17.359867431437184    ,0.0 ,-43.760455011792885   ,-43.760455011792885     ,        0.0 ,        0.0 , 0.0
 0.0 ,0.0 ,           0.0 ,            0.0 ,            0.0 ,            0.0 ,              0.0 ,                   0.0 ,1050.0 ,117.1913 ,-24.82375 ,           0.0 ,           0.0 ,       0.0 ,-62.51977      ,-18.57177   ,0.0002459266     ,0.0001100734     ,                 0.0 ,             0.0 ,             0.0 ,                 0.0 ,                 0.0 ,        0.0 ,1.000211199558169      ,            0.0 ,            0.0 ,            0.0 ,              0.0 ,                   0.0 ,  0.0 ,0.0 , 952.9697883272407   ,1.0                ,0.0 ,-191.67430233104912 ,-385.95952764765826 ,-0.4676538288770591     ,-192.17967804129452 ,          0.0 ,          0.0 ,-191.67315162091435 ,-385.960678357793   ,-192.17967804129452 ,-769.8135080200019  ,112.02601653181468   ,256.60450266629397  ,194.03476359266466   ,-252.81139455428746   ,-447.0966198708966  ,-0.4676538288770591     ,-253.31677026453283 ,          0.0 ,          0.0 ,-252.81024384415272  ,-447.09777058103134 ,-253.31677026453283 ,-953.2248346923648  ,112.02601653181468   ,317.74159488953234   ,194.03476359266466   ,2.5455987170538024e-06  ,-4.688708148729965e-05  ,3.96091275244702e-06    ,      0.0 ,      0.0 ,      0.0 ,2.625326721184308e-06   ,-4.6966814840101864e-05 ,      0.0 ,-4.4341486419250305e-05 ,2.7939515162954296e-05 ,0.6338577596661805   ,1.0                     ,0.006212980406343123    ,-0.03443707799767522    ,0.0                    ,0.03499559631540773    ,0.0 ,-61.13710222587989    ,-61.13710222587989      ,        0.0 ,        0.0 , 0.0
 0.0 ,0.0 ,           0.0 ,            0.0 ,            0.0 ,            0.0 ,              0.0 ,                   0.0 ,1051.0 ,115.234  ,-24.83021 ,           0.0 ,           0.0 ,       0.0 ,-62.84119      ,-18.54609   ,0.001336694      ,0.0001222693     ,                 0.0 ,             0.0 ,             0.0 ,                 0.0 ,                 0.0 ,        0.0 ,2.499925833154066      ,            0.0 ,            0.0 ,            0.0 ,              0.0 ,                   0.0 ,  0.0 ,0.0 , 953.9485154236187   ,1.0                ,0.0 ,-190.3025128659787  ,-383.04222737775063 ,-1.0343509469063243     ,-191.2503746579169  ,          0.0 ,          0.0 ,-190.29691378022028 ,-383.04782646350907 ,-191.2503746579169  ,-764.5950649301641  ,111.01061613466374   ,254.86500497073226  ,192.27605665042393   ,-254.72125156702958   ,-447.4610160502837  ,-1.0343509469063243     ,-255.66911335896782 ,          0.0 ,          0.0 ,-254.7156524812712   ,-447.46656516455994 ,-255.66911335896782 ,-957.8512810333167  ,111.01061613466374   ,319.2837936432653    ,192.27605665042393   ,7.73414403715347e-06    ,-1.6210786281604793e-05 ,-7.833590211018318e-06  ,      0.0 ,      0.0 ,      0.0 ,8.713631829558977e-06   ,-1.7190275573451434e-05 ,      0.0 ,-8.476643244345817e-06  ,1.3539123404657953e-05 ,0.8156468774519021   ,0.503927541812428       ,-0.027748421852542268   ,-0.027829676858685398   ,0.0269950086757201     ,-37.34265432072903     ,0.0 ,-27.04827116544088    ,-27.04827116544088      ,        0.0 ,        0.0 , 0.0
 0.0 ,0.0 ,           0.0 ,            0.0 ,            0.0 ,            0.0 ,              0.0 ,                   0.0 ,1052.0 ,113.2722 ,-24.83845 ,           0.0 ,           0.0 ,       0.0 ,-63.01945      ,-18.53651   ,0.001630512      ,0.0001054675     ,                 0.0 ,             0.0 ,             0.0 ,                 0.0 ,                 0.0 ,        0.0 ,2.5008753509780712     ,            0.0 ,            0.0 ,            0.0 ,              0.0 ,                   0.0 ,  0.0 ,0.0 , 952.4603177050666   ,1.0                ,0.0 ,-190.45444434115873 ,-382.97981207432434 ,-1.0388443896205306     ,-191.27483380533778 ,          0.0 ,          0.0 ,-190.44857188361345 ,-382.985667957653   ,-191.27483380533778 ,-764.7090235590692  ,110.92386024275503   ,254.90299674027358  ,192.1258234573983    ,-254.75084253145434   ,-447.27626016234024 ,-1.0388443896205306     ,-255.57123199563335 ,          0.0 ,          0.0 ,-254.74495330987753  ,-447.28206614794857 ,-255.57123199563335 ,-957.5981846018929  ,110.92386024275503   ,319.19946159232103   ,192.1258234573983    ,3.67431596859761e-06    ,-1.6582603648892145e-05 ,-5.03668715466216e-06   ,      0.0 ,      0.0 ,      0.0 ,4.863936307253248e-06   ,-1.777222264817596e-05  ,      0.0 ,-1.2908287678248936e-05 ,1.2877567080369986e-05 ,0.8757459514370959   ,0.3383843322132392      ,-0.03993323648500073    ,-0.0058074960618259164  ,0.03600662527015574    ,-49.84012213785712     ,0.0 ,-14.449063321646245   ,-14.449063321646245     ,        0.0 ,        0.0 , 0.0
 0.0 ,0.0 ,           0.0 ,            0.0 ,            0.0 ,            0.0 ,              0.0 ,                   0.0 ,1053.0 ,111.3048 ,-24.84859 ,           0.0 ,           0.0 ,       0.0 ,-63.12736      ,-18.53586   ,0.001906712      ,9.55432e-05      ,                 0.0 ,             0.0 ,             0.0 ,                 0.0 ,                 0.0 ,        0.0 ,2.5012365415614033     ,            0.0 ,            0.0 ,            0.0 ,              0.0 ,                   0.0 ,  0.0 ,0.0 , 953.4706487454051   ,1.0                ,0.0 ,-190.9841035668444  ,-383.63739773249205 ,-1.1446114063326567     ,-191.44942255778764 ,          0.0 ,          0.0 ,-190.97722344258926 ,-383.6442778567472  ,-191.44942255778764 ,-766.070907332223   ,111.10045000436779   ,255.35695248529237  ,192.4317108974405    ,-254.25075784616362   ,-446.90400186099    ,-1.1446114063326567     ,-254.7160600377303  ,          0.0 ,          0.0 ,-254.24381104618607  ,-446.9109321360664  ,-254.7160600377303  ,-955.8707032199828  ,111.10045000436779   ,318.6236232895127    ,192.4317108974405    ,-1.9016381328553008e-06 ,-2.450693403040106e-05  ,-3.2530527594018617e-06 ,      0.0 ,      0.0 ,      0.0 ,-1.4740853195454733e-06 ,-2.4934480840151118e-05 ,      0.0 ,-2.6408569824252404e-05 ,1.435005605005382e-05  ,0.7524564459795577   ,0.668327960537999       ,-0.019529993443429247   ,-0.013283397447971298   ,0.01150447802830147    ,-27.444955448529157    ,0.0 ,-35.80608975164942    ,-35.80608975164942      ,        0.0 ,        0.0 , 0.0
 0.0 ,0.0 ,           0.0 ,            0.0 ,            0.0 ,            0.0 ,              0.0 ,                   0.0 ,1054.0 ,109.3299 ,-24.86248 ,           0.0 ,           0.0 ,       0.0 ,-63.2262       ,-18.53986   ,0.002319573      ,8.745235e-05     ,                 0.0 ,             0.0 ,             0.0 ,                 0.0 ,                 0.0 ,        0.0 ,1.5014448854969527     ,            0.0 ,            0.0 ,            0.0 ,              0.0 ,                   0.0 ,  0.0 ,0.0 , 956.8889281198858   ,1.0                ,0.0 ,-191.37342026164703 ,-384.3772524113924  ,-1.203304452897123      ,-191.64147866295048 ,          0.0 ,          0.0 ,-191.36591767937404 ,-384.38475499366535 ,-191.64147866295048 ,-767.3921513359899  ,111.3599877093777    ,255.79735046441868  ,192.88123189342446   ,-253.65837958478392   ,-446.662211617351   ,-1.203304452897123      ,-253.92648795613135 ,          0.0 ,          0.0 ,-253.6508768853326   ,-446.66971431680224 ,-253.92648795613135 ,-954.2470291855764  ,111.3599877093777    ,318.08235975759953   ,192.88123189342446   ,-5.1949078732889e-06    ,-3.496257731249856e-05  ,1.1291351347013273e-06  ,      0.0 ,      0.0 ,      0.0 ,-4.968508028856113e-06  ,-3.518897015837881e-05  ,      0.0 ,-4.015748068990451e-05  ,1.9045899404908692e-05 ,0.8142563337077862   ,0.49840279393639747     ,-0.01025958130905755    ,-0.00996716296074134    ,0.004569300711583823   ,-35.406270196605014    ,0.0 ,-26.867006949048665   ,-26.867006949048665     ,        0.0 ,        0.0 , 0.0
 0.0 ,0.0 ,           0.0 ,            0.0 ,            0.0 ,            0.0 ,              0.0 ,                   0.0 ,1055.0 ,107.3448 ,-24.88247 ,           0.0 ,           0.0 ,       0.0 ,-63.36372      ,-18.5461    ,0.002727323      ,7.558223e-05     ,                 0.0 ,             0.0 ,             0.0 ,                 0.0 ,                 0.0 ,        0.0 ,1.0110452680573727     ,            0.0 ,            0.0 ,            0.0 ,              0.0 ,                   0.0 ,  0.0 ,0.0 , 958.127860783706    ,1.0                ,0.0 ,-191.67984135849593 ,-385.17482455028596 ,-1.2098264948782214     ,-191.8583271239142  ,          0.0 ,          0.0 ,-191.6722771242458  ,-385.1824386859813  ,-191.8583271239142  ,-768.7129930326961  ,111.66950529689055   ,256.2376642785288   ,193.4172374953621    ,-253.04811410339914   ,-446.54314665739275 ,-1.2098264948782214     ,-253.22659932957572 ,          0.0 ,          0.0 ,-253.0405992313526   ,-446.5506615294393  ,-253.22659932957572 ,-952.8178600903677  ,111.66950529689055   ,317.60593685236597   ,193.4172374953621    ,-6.035367426157177e-06  ,-4.541944349378721e-05  ,7.1146154825100405e-06  ,      0.0 ,      0.0 ,      0.0 ,-5.716290379059757e-06  ,-4.573851855338013e-05  ,      0.0 ,-5.1454811928237255e-05 ,2.49273840670243e-05   ,1.0                  ,-0.004641718613080565   ,-0.006989581834985686   ,0.0                     ,0.00851367383980127    ,-61.3682923648297      ,0.0 ,0.0                   ,0.0                     ,        0.0 ,        0.0 , 0.0
 0.0 ,0.0 ,           0.0 ,            0.0 ,            0.0 ,            0.0 ,              0.0 ,                   0.0 ,1056.0 ,105.3459 ,-24.91362 ,           0.0 ,           0.0 ,       0.0 ,-63.60379      ,-18.55324   ,0.003183934      ,7.669899e-05     ,                 0.0 ,             0.0 ,             0.0 ,                 0.0 ,                 0.0 ,        0.0 ,3.485167557613395      ,            0.0 ,            0.0 ,            0.0 ,              0.0 ,                   0.0 ,  0.0 ,0.0 , 959.1604310236671   ,1.0                ,0.0 ,-190.99210925438237 ,-383.0726129052523  ,-1.685338941154447      ,-191.30028876666623 ,          0.0 ,          0.0 ,-190.97704760296162 ,-383.0876740212327  ,-191.30028876666623 ,-765.3649610493776  ,110.82198386740066   ,255.12162034979252  ,191.94927980550975   ,-254.77810562331777   ,-446.8585596865513  ,-1.685338941154447      ,-255.08623554796523 ,          0.0 ,          0.0 ,-254.76299438426065  ,-446.8736703901682  ,-255.08623554796523 ,-956.7229008578344  ,110.82198386740066   ,318.9076665956512    ,191.94927980550975   ,-1.38170934771758e-06   ,-2.4322862191762577e-05 ,6.738396468498341e-07   ,      0.0 ,      0.0 ,      0.0 ,-1.0312912238403342e-06 ,-2.4673280238990883e-05 ,      0.0 ,-2.57045714129543e-05   ,1.3957297202770678e-05 ,1.0                  ,-0.008559063021398599   ,-0.009654018483231967   ,0.0                     ,0.013033601747551945   ,-63.78598157943057     ,0.0 ,0.0                   ,0.0                     ,        0.0 ,        0.0 , 0.0
 0.0 ,0.0 ,           0.0 ,            0.0 ,            0.0 ,            0.0 ,              0.0 ,                   0.0 ,1057.0 ,103.3275 ,-24.96457 ,           0.0 ,           0.0 ,       0.0 ,-64.03944      ,-18.56063   ,0.003435443      ,7.547983e-05     ,                 0.0 ,             0.0 ,             0.0 ,                 0.0 ,                 0.0 ,        0.0 ,0.5253036544022139     ,            0.0 ,            0.0 ,            0.0 ,              0.0 ,                   0.0 ,  0.0 ,0.0 , 960.228752308274    ,1.0                ,0.0 ,-191.28935779685114 ,-384.05550308819244 ,-1.9995174976622814     ,-191.59102201496896 ,          0.0 ,          0.0 ,-191.26808227825444 ,-384.07672921648543 ,-191.59102201496896 ,-766.9358829000125  ,111.22503348293205   ,255.64529444479658  ,192.64745006154493   ,-254.33380055494288   ,-447.0999458462842  ,-1.9995174976622814     ,-254.63546477306073 ,          0.0 ,          0.0 ,-254.3125250363462   ,-447.1211719745772  ,-254.63546477306073 ,-956.0692088192416  ,111.22503348293205   ,318.68973720288835   ,192.64745006154493   ,-2.543862545479156e-06  ,-2.180217400344173e-05  ,2.9481272943034427e-06  ,      0.0 ,      0.0 ,      0.0 ,-2.4307099193405237e-06 ,-2.1915324128664558e-05 ,      0.0 ,-2.43460340794057e-05   ,1.201321647295727e-05  ,1.0                  ,-0.0038275544373420345  ,-0.005686339599105933   ,0.0                     ,0.006864648586821415   ,-63.04443271465405     ,0.0 ,0.0                   ,0.0                     ,        0.0 ,        0.0 , 0.0
 0.0 ,0.0 ,           0.0 ,            0.0 ,            0.0 ,            0.0 ,              0.0 ,                   0.0 ,1058.0 ,101.2814 ,-25.04821 ,           0.0 ,           0.0 ,       0.0 ,-64.80303      ,-18.56791   ,0.002698158      ,-9.384425e-05    ,                 0.0 ,             0.0 ,             0.0 ,                 0.0 ,                 0.0 ,        0.0 ,2.4970178308154054     ,            0.0 ,            0.0 ,            0.0 ,              0.0 ,                   0.0 ,  0.0 ,0.0 , 961.3770075710155   ,1.0                ,0.0 ,-191.92180740188934 ,-385.04619120726227 ,-2.495971654864169      ,-191.94765115561185 ,          0.0 ,          0.0 ,-191.88929176749366 ,-385.078706841658   ,-191.94765115561185 ,-768.915601222749   ,111.52108122994862   ,256.3052173669501   ,193.16021257122097   ,-254.90209746850414   ,-448.0264315638192  ,-2.495971654864169      ,-254.92794122222665 ,          0.0 ,          0.0 ,-254.86958183410843  ,-448.0589471982149  ,-254.92794122222665 ,-957.85631821668    ,111.52108122994862   ,319.28550743356493   ,193.16021257122097   ,-2.638320257903275e-06  ,-4.63454149092419e-05   ,3.7122959300413673e-06  ,      0.0 ,      0.0 ,      0.0 ,-2.5384334953109362e-06 ,-4.644529573599388e-05  ,      0.0 ,-4.898373318575112e-05  ,2.6115543626702817e-05 ,1.0                  ,-0.0036919032826011437  ,-0.0030889174229793265  ,0.0                     ,0.004860806303895918   ,-62.98027024140758     ,0.0 ,0.0                   ,0.0                     ,        0.0 ,        0.0 , 0.0
 0.0 ,0.0 ,           0.0 ,            0.0 ,            0.0 ,            0.0 ,              0.0 ,                   0.0 ,1059.0 ,99.19704 ,-25.17971 ,           0.0 ,           0.0 ,       0.0 ,-66.04762      ,-18.57495   ,0.002602451      ,-0.000108181     ,                 0.0 ,             0.0 ,             0.0 ,                 0.0 ,                 0.0 ,        0.0 ,1.9760366436715386     ,            0.0 ,            0.0 ,            0.0 ,              0.0 ,                   0.0 ,  0.0 ,0.0 , 962.6661556516192   ,1.0                ,0.0 ,-191.75355854547405 ,-384.00555296210325 ,-3.2369796535909483     ,-191.83338132164914 ,          0.0 ,          0.0 ,-191.6990613012283  ,-384.06009969125137 ,-191.83338132164914 ,-767.5925416310587  ,111.02096096854564   ,255.86421330593106  ,192.29397632501212   ,-257.5602346198987    ,-449.81223074979334 ,-3.2369796535909483     ,-257.6400573960738  ,          0.0 ,          0.0 ,-257.505737375653    ,-449.86677576567604 ,-257.6400573960738  ,-965.0123344114988  ,111.02096096854564   ,321.6708893803558    ,192.29397632501212   ,-1.5870661232828555e-06 ,-2.796143663292372e-05  ,1.0578036904221855e-06  ,      0.0 ,      0.0 ,      0.0 ,-1.3968278379262017e-06 ,-2.815167768793262e-05  ,      0.0 ,-2.9548505540395345e-05 ,1.5865906332606734e-05 ,0.8169059601523112   ,0.49098634642271366     ,-0.005054847195109076   ,-0.0007952491031438059  ,0.005175906263734097   ,-38.95179890115962     ,0.0 ,-26.85308124799743    ,-26.85308124799743      ,        0.0 ,        0.0 , 0.0
 0.0 ,0.0 ,           0.0 ,            0.0 ,            0.0 ,            0.0 ,              0.0 ,                   0.0 ,1060.0 ,97.05903 ,-25.36642 ,           0.0 ,           0.0 ,       0.0 ,-67.84751      ,-18.58167   ,0.007041136      ,-0.0001089761    ,                 0.0 ,             0.0 ,             0.0 ,                 0.0 ,                 0.0 ,        0.0 ,0.5571956284875899     ,            0.0 ,            0.0 ,            0.0 ,              0.0 ,                   0.0 ,  0.0 ,0.0 , 964.0999046628046   ,1.0                ,0.0 ,-192.02633908395222 ,-384.9919138788539  ,-3.9621311614664556     ,-192.21950018955818 ,          0.0 ,          0.0 ,-191.94473941820812 ,-385.0735626909671  ,-192.21950018955818 ,-769.2377555853302  ,111.42382870723023   ,256.41256800199847  ,192.9917647714487    ,-258.93624455851824   ,-451.90186777408496 ,-3.9621311614664556     ,-259.1293565177551  ,          0.0 ,          0.0 ,-258.8545957464051   ,-451.9834681655331  ,-259.1293565177551  ,-969.9676722648821  ,111.42382870723023   ,323.3224734765645    ,192.9917647714487    ,-1.6825081047406106e-06 ,-2.2408411254756577e-05 ,1.7375370172612961e-06  ,      0.0 ,      0.0 ,      0.0 ,-1.6409173408592281e-06 ,-2.245000349558757e-05  ,      0.0 ,-2.4090919916692814e-05 ,1.2515298661936099e-05 ,0.8181186259746791   ,0.48999158536984083     ,-0.0024368182656436172  ,-0.0014992709292144715  ,0.0017578361368336926  ,-38.544943880975374    ,0.0 ,-28.362831551722078   ,-28.362831551722078     ,        0.0 ,        0.0 , 0.0
 0.0 ,0.0 ,           0.0 ,            0.0 ,            0.0 ,            0.0 ,              0.0 ,                   0.0 ,1061.0 ,94.84466 ,-25.5831  ,           0.0 ,           0.0 ,       0.0 ,-69.95099      ,-18.58801   ,0.02020314       ,0.0002936155     ,                 0.0 ,             0.0 ,             0.0 ,                 0.0 ,                 0.0 ,        0.0 ,3.4855986900724387     ,            0.0 ,            0.0 ,            0.0 ,              0.0 ,                   0.0 ,  0.0 ,0.0 , 965.8498294941728   ,1.0                ,0.0 ,-192.16555965907304 ,-383.85878726344293 ,-4.922412518101169      ,-192.0866238732582  ,          0.0 ,          0.0 ,-192.03876618484222 ,-383.98558073767373 ,-192.0866238732582  ,-768.1110222359052  ,110.80678680471432   ,256.03699026525805  ,191.92300903568747   ,-262.00701275848024   ,-453.7002403628501  ,-4.922412518101169      ,-261.9280804991097  ,          0.0 ,          0.0 ,-261.8802192842494   ,-453.8270373635252  ,-261.9280804991097  ,-977.6355323280753  ,110.80678680471432   ,325.87844336466526   ,191.92300903568747   ,-2.170343892200136e-06  ,-2.8196476097905324e-05 ,-1.953281981645156e-06  ,      0.0 ,      0.0 ,      0.0 ,-2.097233297485809e-06  ,-2.8269586650893384e-05 ,      0.0 ,-3.0366823820245068e-05 ,1.5766578786207656e-05 ,0.8065800152003064   ,0.5176503587334931      ,-0.003517784863060548   ,-0.0006012148594630877  ,0.0036755485024936776  ,-39.12389285563263     ,0.0 ,-30.715707736791177   ,-30.715707736791177     ,        0.0 ,        0.0 , 0.0
 0.0 ,0.0 ,           0.0 ,            0.0 ,            0.0 ,            0.0 ,              0.0 ,                   0.0 ,1062.0 ,92.53693 ,-25.71493 ,           0.0 ,           0.0 ,       0.0 ,-71.2109       ,-18.59384   ,0.04466009       ,-0.0004353762    ,                 0.0 ,             0.0 ,             0.0 ,                 0.0 ,                 0.0 ,        0.0 ,1.5212506080480253     ,            0.0 ,            0.0 ,            0.0 ,              0.0 ,                   0.0 ,  0.0 ,0.0 , 965.928006579818    ,1.0                ,0.0 ,-191.44670700422046 ,-380.092499596738   ,-5.970336137977515      ,-190.6460960461328  ,          0.0 ,          0.0 ,-191.2576488115794  ,-380.28155424127476 ,-190.6460960461328  ,-762.1853498073407  ,109.31055700110808   ,254.06176873173177  ,189.33139655120567   ,-263.33121920574104   ,-451.97706108990496 ,-5.970336137977515      ,-262.5306589560071  ,          0.0 ,          0.0 ,-263.1422138528506   ,-452.166117151149   ,-262.5306589560071  ,-977.8390477645686  ,109.31055700110808   ,325.9462809332524    ,189.33139655120567   ,-1.3319734264235434e-06 ,-5.0559189036145205e-06 ,-9.297030453926708e-07  ,      0.0 ,      0.0 ,      0.0 ,-1.273795289816317e-06  ,-5.114096568619253e-06  ,      0.0 ,-6.3878917519924445e-06 ,2.662535806329658e-06  ,0.8095658740602811   ,0.5058240467113987      ,-0.004080777292084906   ,-0.001334439744048202   ,0.0015288563221818035  ,-29.331850631664825    ,0.0 ,-42.54919520496581    ,-42.54919520496581      ,        0.0 ,        0.0 , 0.0
 0.0 ,0.0 ,           0.0 ,            0.0 ,            0.0 ,            0.0 ,              0.0 ,                   0.0 ,1063.0 ,90.14836 ,-25.76606 ,           0.0 ,           0.0 ,       0.0 ,-71.66671      ,-18.59938   ,0.1134188        ,0.008613598      ,                 0.0 ,             0.0 ,             0.0 ,                 0.0 ,                 0.0 ,        0.0 ,1.9426058691236059     ,            0.0 ,            0.0 ,            0.0 ,              0.0 ,                   0.0 ,  0.0 ,0.0 , 967.372588390233    ,1.0                ,0.0 ,-192.22628336660267 ,-373.93862846611984 ,-5.783377178449693      ,-188.40179188499036 ,          0.0 ,          0.0 ,-192.03412607963753 ,-374.13078756460936 ,-188.40179188499036 ,-754.5667037177129  ,106.20011105112214   ,251.52226659660806  ,183.943983979062     ,-263.39324564742225   ,-445.10563968875715 ,-5.783377178449693      ,-259.56880129610335 ,          0.0 ,          0.0 ,-263.2011394186392   ,-445.29779697572235 ,-259.56880129610335 ,-968.0678672976792  ,106.20011105112214   ,322.6892288774276    ,183.943983979062     ,-3.925907084033478e-06  ,-3.075223097713066e-05  ,2.3562386338078988e-07  ,      0.0 ,      0.0 ,      0.0 ,-3.902895455746144e-06  ,-3.077524393776433e-05  ,      0.0 ,-3.4678135943371186e-05 ,1.680679350337139e-05  ,0.8061472877124025   ,0.509375002364384       ,-0.0032109205395340163  ,-0.0009078747574496773  ,0.0012291678823974335  ,-27.972621934421827    ,0.0 ,-43.19124249780273    ,-43.19124249780273      ,        0.0 ,        0.0 , 0.0
 0.0 ,0.0 ,           0.0 ,            0.0 ,            0.0 ,            0.0 ,              0.0 ,                   0.0 ,1064.0 ,87.75988 ,-25.65242 ,           0.0 ,           0.0 ,       0.0 ,-70.47884      ,-18.60454   ,0.1321075        ,-0.00705958      ,                 0.0 ,             0.0 ,             0.0 ,                 0.0 ,                 0.0 ,        0.0 ,1.0                    ,            0.0 ,            0.0 ,            0.0 ,              0.0 ,                   0.0 ,  0.0 ,0.0 , 921.7537055382804   ,1.0                ,0.0 ,-196.4875346530664  ,-371.0066538139246  ,6.376899328709557       ,-187.91210415928083 ,          0.0 ,          0.0 ,-195.41291129349509 ,-372.0813186519458  ,-187.91210415928083 ,-755.4062926262718  ,104.25018878287918   ,251.80211136824056  ,180.5666525311699    ,-264.9308525827203    ,-439.45001322202836 ,6.376899328709557       ,-256.3554220889347  ,          0.0 ,          0.0 ,-263.8562432897686   ,-440.5246365815997  ,-256.3554220889347  ,-960.7363042153745  ,104.25018878287918   ,320.2454292978945    ,180.5666525311699    ,-4.780608061560686e-06  ,-4.776228805405119e-05  ,7.3802075225742215e-06  ,      0.0 ,      0.0 ,      0.0 ,-4.251166604688662e-06  ,-4.829173338468519e-05  ,      0.0 ,-5.2542899382551384e-05 ,2.674095073190516e-05  ,0.7751117123787339   ,0.5841927155078523      ,-0.0015345990187091664  ,-0.00021154125561193335 ,0.001041726291623299   ,-23.70822993809263     ,0.0 ,-44.733746895473594   ,-44.733746895473594     ,        0.0 ,        0.0 , 0.0
 0.0 ,0.0 ,           0.0 ,            0.0 ,            0.0 ,            0.0 ,              0.0 ,                   0.0 ,1065.0 ,86.1391  ,-28.14595 ,           0.0 ,           0.0 ,       0.0 ,-95.35636      ,-18.61032   ,-0.314943        ,0.006602231      ,                 0.0 ,             0.0 ,             0.0 ,                 0.0 ,                 0.0 ,        0.0 ,0.672005228418583      ,            0.0 ,            0.0 ,            0.0 ,              0.0 ,                   0.0 ,  0.0 ,0.0 , 991.5727268026689   ,1.0                ,0.0 ,-214.2285228837259  ,-416.9409442450868  ,17.978042584622276      ,-210.1384557715125  ,          0.0 ,          0.0 ,-211.78286477105877 ,-419.3865535291448  ,-210.1384557715125  ,-841.307858042584   ,120.40996093262424   ,280.4359743001084   ,208.55619574266922   ,-308.76359996292297   ,-511.47600529515194 ,17.978042584622276      ,-304.67351682157755 ,          0.0 ,          0.0 ,-306.3179609633827   ,-513.92161457921    ,-304.67351682157755 ,-1124.912807652089  ,120.40996093262424   ,374.97103535017345   ,208.55619574266922   ,-2.6364006549349206e-06 ,-2.1323051505304798e-05 ,1.9592786529276155e-06  ,      0.0 ,      0.0 ,      0.0 ,-2.584443260317313e-06  ,-2.1375012543599668e-05 ,      0.0 ,-2.3959454620197843e-05 ,1.1666604743524463e-05 ,0.8059889447613741   ,0.5107749343528798      ,-0.0016680591243929078  ,-0.0002739859433601783  ,0.0009973936784998098  ,-44.34616017747615     ,0.0 ,-50.18757759140803    ,-50.18757759140803      ,        0.0 ,        0.0 , 0.0
 0.0 ,0.0 ,           0.0 ,            0.0 ,            0.0 ,            0.0 ,              0.0 ,                   0.0 ,1066.0 ,82.98837 ,-28.88415 ,           0.0 ,           0.0 ,       0.0 ,-102.6744      ,-18.61671   ,-0.4903842       ,-0.01219907      ,                 0.0 ,             0.0 ,             0.0 ,                 0.0 ,                 0.0 ,        0.0 ,1.7219985121055568     ,            0.0 ,            0.0 ,            0.0 ,              0.0 ,                   0.0 ,  0.0 ,0.0 ,1028.4126850991513   ,1.0                ,0.0 ,-215.64949857343322 ,-445.33004117776113 ,25.880394799816827      ,-221.79092510450624 ,          0.0 ,          0.0 ,-212.45340492663007 ,-448.5260802324606  ,-221.79092510450624 ,-882.7704102635969  ,133.68997983118226   ,294.2568064826015   ,231.55787228258782   ,-317.5119864970743    ,-547.1925291014022  ,25.880394799816827      ,-323.65341302814727 ,          0.0 ,          0.0 ,-314.3158928502711   ,-550.3885681561017  ,-323.65341302814727 ,-1188.3578795616745 ,133.68997983118226   ,396.1192944062425    ,231.55787228258782   ,2.4666591860306766e-06  ,-2.6486383722445322e-05 ,3.3092936636976725e-06  ,      0.0 ,      0.0 ,      0.0 ,2.5620081011185264e-06  ,-2.6581728613700737e-05 ,      0.0 ,-2.4019722751537907e-05 ,1.6137482642975622e-05 ,1.0                  ,-0.002137968862347221   ,-0.0004726935188548849  ,0.0                     ,0.0022075810721568076  ,-101.86249884206183    ,0.0 ,0.0                   ,0.0                     ,        0.0 ,        0.0 , 0.0
 0.0 ,0.0 ,           0.0 ,            0.0 ,            0.0 ,            0.0 ,              0.0 ,                   0.0 ,1067.0 ,80.00915 ,-29.46629 ,           0.0 ,           0.0 ,       0.0 ,-108.4377      ,-18.62252   ,-0.05290739      ,0.03604937       ,                 0.0 ,             0.0 ,             0.0 ,                 0.0 ,                 0.0 ,        0.0 ,2.5537156867972515     ,            0.0 ,            0.0 ,            0.0 ,              0.0 ,                   0.0 ,  0.0 ,0.0 ,1047.7406365683569   ,1.0                ,0.0 ,-215.43530302646158 ,-461.0478242432536  ,-1.4280182404439135     ,-227.62983677497695 ,          0.0 ,          0.0 ,-213.97150078704794 ,-462.5116293373194  ,-227.62983677497695 ,-904.1129640446921  ,139.72160767328654   ,301.3709868212155   ,242.0049697420805    ,-321.9668648649906    ,-567.5793860817828  ,-1.4280182404439135     ,-334.16139861350604 ,          0.0 ,          0.0 ,-320.50306262557706  ,-569.0432393853257  ,-334.16139861350604 ,-1223.7078431755037 ,139.72160767328654   ,407.9025486597445    ,242.0049697420805    ,5.288903305092143e-06   ,-6.082972659355703e-05  ,-8.933063832682451e-07  ,      0.0 ,      0.0 ,      0.0 ,5.522815830563507e-06   ,-6.106363284351398e-05  ,      0.0 ,-5.554081948829053e-05  ,3.695340917812245e-05  ,0.9904032046596374   ,0.026315716059678806    ,-0.00022649932011712835 ,-2.443605090507277e-06  ,0.0022367318108184172  ,-102.5090122966846     ,0.0 ,-4.022490365783736    ,-4.022490365783736      ,        0.0 ,        0.0 , 0.0
 0.0 ,0.0 ,           0.0 ,            0.0 ,            0.0 ,            0.0 ,              0.0 ,                   0.0 ,1068.0 ,76.78128 ,-29.39815 ,           0.0 ,           0.0 ,       0.0 ,-107.6958      ,-18.62857   ,0.5448004        ,-0.00662005      ,                 0.0 ,             0.0 ,             0.0 ,                 0.0 ,                 0.0 ,        0.0 ,2.5062995848242995     ,            0.0 ,            0.0 ,            0.0 ,              0.0 ,                   0.0 ,  0.0 ,0.0 , 967.2519767511164   ,1.0                ,0.0 ,-216.41951739133935 ,-448.8393033531785  ,-22.028494714989904     ,-223.09255370968896 ,          0.0 ,          0.0 ,-213.9569403448475  ,-451.3019176505477  ,-223.09255370968896 ,-888.3514133315332  ,134.4855467977679    ,296.11712035837525  ,232.9358437105351    ,-322.60234732976056   ,-555.0220944142732  ,-22.028494714989904     ,-329.27538364811016 ,          0.0 ,          0.0 ,-320.1397314059422   ,-557.4847714607652  ,-329.27538364811016 ,-1206.899803146797  ,134.4855467977679    ,402.2999502967964    ,232.9358437105351    ,5.449953715752733e-06   ,-5.351607706696633e-05  ,-1.0740901807633242e-05 ,      0.0 ,      0.0 ,      0.0 ,6.028833398961714e-06   ,-5.4094957706640786e-05 ,      0.0 ,-4.806612429141459e-05  ,3.311290576954824e-05  ,0.8747696653258021   ,0.3705525326898113      ,-0.0009744623108834866  ,-3.188704900361404e-05  ,0.001957808352572777   ,-53.69170600685687     ,0.0 ,-52.49021124918523    ,-52.49021124918523      ,        0.0 ,        0.0 , 0.0
 0.0 ,0.0 ,           0.0 ,            0.0 ,            0.0 ,            0.0 ,              0.0 ,                   0.0 ,1069.0 ,73.25327 ,-28.66057 ,           0.0 ,           0.0 ,       0.0 ,-100.2537      ,-18.6352    ,0.2562608        ,-0.001557265     ,                 0.0 ,             0.0 ,             0.0 ,                 0.0 ,                 0.0 ,        0.0 ,0.6293805288634795     ,            0.0 ,            0.0 ,            0.0 ,              0.0 ,                   0.0 ,  0.0 ,0.0 ,1029.757525493124    ,0.9999999999999999 ,0.0 ,-215.34074290239536 ,-415.5306270704423  ,-16.637643402535204     ,-209.36179436160123 ,          0.0 ,          0.0 ,-213.50497461021084 ,-417.36634390479    ,-209.36179436160123 ,-840.2331272724917  ,118.98586999440347   ,280.07770429220074  ,206.0895574298269    ,-315.1261326252768    ,-515.3159910153429  ,-16.637643402535204     ,-309.14718408448266 ,          0.0 ,          0.0 ,-313.29040139503934  ,-517.1517964675994  ,-309.14718408448266 ,-1139.589647702723  ,118.98586999440347   ,379.86309401508214   ,206.0895574298269    ,8.124951024111281e-07   ,-1.7448908843275618e-05 ,-5.40207149489338e-06   ,      0.0 ,      0.0 ,      0.0 ,1.2037046180437827e-06  ,-1.7840119928994082e-05 ,      0.0 ,-1.663641482552867e-05  ,1.0692492279255361e-05 ,0.7223274802495538   ,0.7412666855555796      ,-0.0014931719559465753  ,-0.00010292628953998752 ,0.0009540889554320107  ,-20.29208405525437     ,0.0 ,-79.4918301182644     ,-79.4918301182644       ,        0.0 ,        0.0 , 0.0
 0.0 ,0.0 ,           0.0 ,            0.0 ,            0.0 ,            0.0 ,              0.0 ,                   0.0 ,1070.0 ,71.21545 ,-25.97106 ,           0.0 ,           0.0 ,       0.0 ,-73.32289      ,-18.63877   ,-0.1511228       ,-0.001262324     ,                 0.0 ,             0.0 ,             0.0 ,                 0.0 ,                 0.0 ,        0.0 ,2.8557694501795297     ,            0.0 ,            0.0 ,            0.0 ,              0.0 ,                   0.0 ,  0.0 ,0.0 , 942.7864712605306   ,1.0                ,0.0 ,-194.7972440547554  ,-369.0049267958317  ,4.462992211385516       ,-186.7936100020943  ,          0.0 ,          0.0 ,-194.66771398170664 ,-369.1344568688804  ,-186.7936100020943  ,-750.5957952757364  ,103.09015798648484   ,250.1985883302309   ,178.5574426589918    ,-268.3835033452341    ,-442.5911281553161  ,4.462992211385516       ,-260.3798416466223  ,          0.0 ,          0.0 ,-268.25391534119103  ,-442.72065822836475 ,-260.3798416466223  ,-971.3543572851839  ,103.09015798648484   ,323.784819974759     ,178.5574426589918    ,-4.317847247913601e-06  ,-2.544620881593836e-05  ,1.908319541322272e-06   ,      0.0 ,      0.0 ,      0.0 ,-4.270427068374201e-06  ,-2.549362969501507e-05  ,      0.0 ,-2.9764057472540427e-05 ,1.3665700600451506e-05 ,0.7244965803290859   ,0.7219464536999809      ,-0.0038591692715080096  ,-6.794978046375212e-05  ,0.0015942653978510888  ,-14.592001563311655    ,0.0 ,-58.990371770154496   ,-58.990371770154496     ,        0.0 ,        0.0 , 0.0
 0.0 ,0.0 ,           0.0 ,            0.0 ,            0.0 ,            0.0 ,              0.0 ,                   0.0 ,1071.0 ,68.83789 ,-25.98816 ,           0.0 ,           0.0 ,       0.0 ,-73.44657      ,-18.6435    ,-0.09111033      ,0.008005406      ,                 0.0 ,             0.0 ,             0.0 ,                 0.0 ,                 0.0 ,        0.0 ,2.0448381249428267     ,            0.0 ,            0.0 ,            0.0 ,              0.0 ,                   0.0 ,  0.0 ,0.0 , 972.841377908398    ,1.0                ,0.0 ,-193.72044774940605 ,-381.64180780302144 ,8.194575024599425       ,-191.43175598832426 ,          0.0 ,          0.0 ,-193.357908279003   ,-382.0043472734245  ,-191.43175598832426 ,-766.7940608022384  ,109.47769240608918   ,255.59800335457498  ,189.62092330084766   ,-266.1967347011765    ,-454.11809027097945 ,8.194575024599425       ,-263.9080429400948  ,          0.0 ,          0.0 ,-265.834190746961    ,-454.4806297413825  ,-263.9080429400948  ,-984.2226276711215  ,109.47769240608918   ,328.0742903063456    ,189.62092330084766   ,-4.197693157735148e-06  ,-4.0700877017846665e-05 ,2.3484766185774403e-06  ,      0.0 ,      0.0 ,      0.0 ,-4.1588232087514015e-06 ,-4.0739746458917956e-05 ,      0.0 ,-4.489857022041993e-05  ,2.2418738808208403e-05 ,0.7979303941117788   ,0.5357576094549338      ,-0.002090893694775613   ,-2.908115319574563e-05  ,0.0016955067644105924  ,-39.12015085409804     ,0.0 ,-33.35403363757083    ,-33.35403363757083      ,        0.0 ,        0.0 , 0.0
 0.0 ,0.0 ,           0.0 ,            0.0 ,            0.0 ,            0.0 ,              0.0 ,                   0.0 ,1072.0 ,66.42886 ,-25.8888  ,           0.0 ,           0.0 ,       0.0 ,-72.4053       ,-18.64827   ,-0.04187318      ,-0.001599464     ,                 0.0 ,             0.0 ,             0.0 ,                 0.0 ,                 0.0 ,        0.0 ,1.030673485442529      ,            0.0 ,            0.0 ,            0.0 ,              0.0 ,                   0.0 ,  0.0 ,0.0 , 974.7938566039167   ,1.0                ,0.0 ,-192.7448460913629  ,-385.95336016743363 ,7.25317256380645        ,-192.63034452364087 ,          0.0 ,          0.0 ,-192.46959832190447 ,-386.2286079368921  ,-192.63034452364087 ,-771.3285507824374  ,111.82078139983537   ,257.1095153757284   ,193.67932686981658   ,-264.58982957992515   ,-457.79834365599584 ,7.25317256380645        ,-264.4753764785288  ,          0.0 ,          0.0 ,-264.3145818104667   ,-458.0735914254543  ,-264.4753764785288  ,-986.8637608302986  ,111.82078139983537   ,328.9544988642906    ,193.67932686981658   ,-1.1608003991336053e-06 ,-2.2149593750151368e-05 ,4.915421446837661e-07   ,      0.0 ,      0.0 ,      0.0 ,-1.1575369946510076e-06 ,-2.2152857716523234e-05 ,      0.0 ,-2.3310390867795435e-05 ,1.2470409262792422e-05 ,0.6489148792385889   ,0.9532768475657607      ,-0.0026829173813927337  ,-6.0905075061035736e-05 ,0.0001706423683408755  ,-3.934729847147991     ,0.0 ,-67.90759035182714    ,-67.90759035182714      ,        0.0 ,        0.0 , 0.0
 0.0 ,0.0 ,           0.0 ,            0.0 ,            0.0 ,            0.0 ,              0.0 ,                   0.0 ,1073.0 ,64.12032 ,-25.66009 ,           0.0 ,           0.0 ,       0.0 ,-70.07285      ,-18.65281   ,-0.01720178      ,-0.0005099424    ,                 0.0 ,             0.0 ,             0.0 ,                 0.0 ,                 0.0 ,        0.0 ,2.4913372380145393     ,            0.0 ,            0.0 ,            0.0 ,              0.0 ,                   0.0 ,  0.0 ,0.0 , 975.0015813168557   ,1.0                ,0.0 ,-192.13502657601333 ,-386.7712557328079  ,6.07336231089916        ,-192.55466943036316 ,          0.0 ,          0.0 ,-191.9434441387612  ,-386.962791098796   ,-192.55466943036316 ,-771.4609517391843  ,112.41846657706743   ,257.1536342018202   ,194.7144331822869    ,-261.7492993425154    ,-456.38552849931    ,6.07336231089916        ,-262.1689892681293  ,          0.0 ,          0.0 ,-261.5577169052633   ,-456.5771109365621  ,-262.1689892681293  ,-980.3040243700716  ,112.41846657706743   ,326.76790696832234   ,194.7144331822869    ,1.874074133675274e-06   ,-3.818274525574316e-05  ,2.327416690056553e-06   ,      0.0 ,      0.0 ,      0.0 ,1.928331218179395e-06   ,-3.823699852999789e-05  ,      0.0 ,-3.630866807339039e-05  ,2.2657227155776916e-05 ,0.8056794428645129   ,0.5275634802783926      ,-0.002950317963117957   ,-2.1380196997922432e-05 ,0.00172390125929549    ,-37.264865490664384    ,0.0 ,-32.34649418163924    ,-32.34649418163924      ,        0.0 ,        0.0 , 0.0
 0.0 ,0.0 ,           0.0 ,            0.0 ,            0.0 ,            0.0 ,              0.0 ,                   0.0 ,1074.0 ,61.92274 ,-25.43928 ,           0.0 ,           0.0 ,       0.0 ,-67.8215       ,-18.65713   ,-0.008065241     ,-0.0005584446    ,                 0.0 ,             0.0 ,             0.0 ,                 0.0 ,                 0.0 ,        0.0 ,0.9742875807316063     ,            0.0 ,            0.0 ,            0.0 ,              0.0 ,                   0.0 ,  0.0 ,0.0 , 973.474330149768    ,1.0                ,0.0 ,-191.3912251693111  ,-386.3736273431124  ,4.778374643345945       ,-192.1948924817895  ,          0.0 ,          0.0 ,-191.27214761926479 ,-386.49260575687003 ,-192.1948924817895  ,-769.9596945723033  ,112.44529674212191   ,256.65321471679783  ,194.76091399995008   ,-258.6615342647166    ,-453.6439364385178  ,4.778374643345945       ,-259.46525029157397 ,          0.0 ,          0.0 ,-258.54245671467027  ,-453.7630139885641  ,-259.46525029157397 ,-971.7709158523245  ,112.44529674212191   ,323.923574234113     ,194.76091399995008   ,1.3651970895982257e-06  ,-2.2349528686493475e-05 ,5.2101830811647e-07     ,      0.0 ,      0.0 ,      0.0 ,1.3680585722228346e-06  ,-2.2352388220542924e-05 ,      0.0 ,-2.0984327699744928e-05 ,1.3317658726967917e-05 ,0.8165707904646093   ,0.5024179891054703      ,-0.0010034859091767126  ,-4.108732166386356e-05  ,0.0018011447194508365  ,-39.0647896711151      ,0.0 ,-28.204569134715808   ,-28.204569134715808     ,        0.0 ,        0.0 , 0.0
 0.0 ,0.0 ,           0.0 ,            0.0 ,            0.0 ,            0.0 ,              0.0 ,                   0.0 ,1075.0 ,59.82603 ,-25.23564 ,           0.0 ,           0.0 ,       0.0 ,-65.7439       ,-18.66125   ,-0.005188082     ,-0.0001845849    ,                 0.0 ,             0.0 ,             0.0 ,                 0.0 ,                 0.0 ,        0.0 ,2.020766201623491      ,            0.0 ,            0.0 ,            0.0 ,              0.0 ,                   0.0 ,  0.0 ,0.0 , 977.373343382918    ,1.0                ,0.0 ,-190.54884397516537 ,-385.5653402092872  ,3.261213724634372       ,-191.55344683000126 ,          0.0 ,          0.0 ,-190.49006020477793 ,-385.62407385196985 ,-191.55344683000126 ,-767.6675821804686  ,112.35500903011001   ,255.88919440625958  ,194.60459457122192   ,-255.33172159169376   ,-450.3482676981108  ,3.261213724634372       ,-256.3363257402492  ,          0.0 ,          0.0 ,-255.27293782130633  ,-450.4070514684983  ,-256.3363257402492  ,-962.0164698218179  ,112.35500903011001   ,320.6721208567731    ,194.60459457122192   ,8.2205173300894e-07     ,-2.7924951081612672e-05 ,-6.916851069184541e-07  ,      0.0 ,      0.0 ,      0.0 ,8.265528948541038e-07   ,-2.7929450695540197e-05 ,      0.0 ,-2.710289725021436e-05  ,1.6369020845699064e-05 ,0.6427948986965206   ,0.9870154250151789      ,-0.0021897938121904904  ,-5.2913363530913935e-05 ,4.7380175395712227e-05 ,-1.0220881952835268    ,0.0 ,-63.75863933636444    ,-63.75863933636444      ,        0.0 ,        0.0 , 0.0
 0.0 ,0.0 ,           0.0 ,            0.0 ,            0.0 ,            0.0 ,              0.0 ,                   0.0 ,1076.0 ,57.81934 ,-25.03506 ,           0.0 ,           0.0 ,       0.0 ,-63.69876      ,-18.66518   ,-0.001345674     ,-0.0002496536    ,                 0.0 ,             0.0 ,             0.0 ,                 0.0 ,                 0.0 ,        0.0 ,1.5387657582297467     ,            0.0 ,            0.0 ,            0.0 ,              0.0 ,                   0.0 ,  0.0 ,0.0 , 977.5982248044309   ,1.0                ,0.0 ,-190.051250528049   ,-384.5729562520254  ,2.065827303483082       ,-190.84094951248616 ,          0.0 ,          0.0 ,-190.02636058181955 ,-384.59779714997507 ,-190.84094951248616 ,-765.4651562925606  ,112.10142804278688   ,255.15503608856534  ,194.1654223955568    ,-252.09844998082568   ,-446.6201571672299  ,2.065827303483082       ,-252.8881984545553  ,          0.0 ,          0.0 ,-252.0735600345962   ,-446.64499806517955 ,-252.8881984545553  ,-951.6067609416144  ,112.10142804278688   ,317.20228503063447   ,194.1654223955568    ,2.1567415791188347e-06  ,-5.214864249944126e-05  ,2.8343254233822174e-09  ,      0.0 ,      0.0 ,      0.0 ,2.161465912250043e-06   ,-5.215336680193001e-05  ,      0.0 ,-4.9991900371342515e-05 ,3.0753964573778864e-05 ,0.814312379164968    ,0.5084571988205527      ,-0.0018529315322493639  ,-1.6260560116444932e-06 ,0.0010600480988357992  ,-34.650913616814144    ,0.0 ,-27.39445822740633    ,-27.39445822740633      ,        0.0 ,        0.0 , 0.0
 0.0 ,0.0 ,           0.0 ,            0.0 ,            0.0 ,            0.0 ,              0.0 ,                   0.0 ,1077.0 ,55.87358 ,-24.90696 ,           0.0 ,           0.0 ,       0.0 ,-62.37958      ,-18.669     ,0.004566777      ,-0.0001616079    ,                 0.0 ,             0.0 ,             0.0 ,                 0.0 ,                 0.0 ,        0.0 ,1.5019681276080714     ,            0.0 ,            0.0 ,            0.0 ,              0.0 ,                   0.0 ,  0.0 ,0.0 , 977.7599826599228   ,1.0                ,0.0 ,-189.27513911965374 ,-382.6052833524368  ,0.9316658641866801      ,-189.86590886013408 ,          0.0 ,          0.0 ,-189.26732442905734 ,-382.61314785564326 ,-189.86590886013408 ,-761.7463807512092  ,111.45590394911127   ,253.91547672339794  ,193.04723602771563   ,-249.98820353374407   ,-443.31834776652715 ,0.9316658641866801      ,-250.57892307741167 ,          0.0 ,          0.0 ,-249.9803888431477   ,-443.32621226973356 ,-250.57892307741167 ,-943.8855736092776  ,111.45590394911127   ,314.62854113748824   ,193.04723602771563   ,2.613395935965816e-06   ,-5.2319760052101075e-05 ,-5.679255922260318e-07  ,      0.0 ,      0.0 ,      0.0 ,2.620446612538151e-06   ,-5.2326816176570475e-05 ,      0.0 ,-4.970636658324247e-05  ,3.099560689532097e-05  ,0.8209363386777537   ,0.4923525389174709      ,-0.0010727901454285372  ,-1.0566203895421241e-05 ,0.0018373087232018048  ,-26.3284343958279      ,0.0 ,-34.38355005758567    ,-34.38355005758567      ,        0.0 ,        0.0 , 0.0
 0.0 ,0.0 ,           0.0 ,            0.0 ,            0.0 ,            0.0 ,              0.0 ,                   0.0 ,1078.0 ,53.96414 ,-24.86963 ,           0.0 ,           0.0 ,       0.0 ,-61.96875      ,-18.67275   ,0.01341107       ,-0.001174576     ,                 0.0 ,             0.0 ,             0.0 ,                 0.0 ,                 0.0 ,        0.0 ,1.4969395386066666     ,            0.0 ,            0.0 ,            0.0 ,              0.0 ,                   0.0 ,  0.0 ,0.0 , 978.6331273363364   ,0.9999999999999999 ,0.0 ,-188.94832166099133 ,-380.91027494245566 ,-0.00670381558654802    ,-189.19632844012162 ,          0.0 ,          0.0 ,-188.94657104854898 ,-380.91202559316827 ,-189.19632844012162 ,-759.0549250435686  ,110.75939665734329   ,253.01829178320486  ,191.84085232159984   ,-249.21538549004754   ,-441.1772885420064  ,-0.00670381558654802    ,-249.46339226917783 ,          0.0 ,          0.0 ,-249.21358518365133  ,-441.17908942222454 ,-249.46339226917783 ,-939.8561165690076  ,110.75939665734329   ,313.2853556122611    ,191.84085232159984   ,1.9175915513301087e-06  ,-5.191505802442883e-05  ,-9.072266191461807e-07  ,      0.0 ,      0.0 ,      0.0 ,1.9232165293434996e-06  ,-5.192068283117289e-05  ,      0.0 ,-4.999746547424684e-05  ,3.054970596737155e-05  ,0.9999999999999999   ,-0.002900854622123983   ,-2.382646358570273e-05  ,0.0                     ,0.002900967449595686   ,-60.26704385584548     ,0.0 ,0.0                   ,0.0                     ,        0.0 ,        0.0 , 0.0
 0.0 ,0.0 ,           0.0 ,            0.0 ,            0.0 ,            0.0 ,              0.0 ,                   0.0 ,1079.0 ,52.07541 ,-24.88994 ,           0.0 ,           0.0 ,       0.0 ,-62.13481      ,-18.67646   ,0.01806048       ,1.618618e-05     ,                 0.0 ,             0.0 ,             0.0 ,                 0.0 ,                 0.0 ,        0.0 ,1.7377869727263218     ,            0.0 ,            0.0 ,            0.0 ,              0.0 ,                   0.0 ,  0.0 ,0.0 , 978.5229808705039   ,1.0                ,0.0 ,-188.71609842709404 ,-379.19819474831667 ,-0.5137166393110857     ,-188.57655655141022 ,          0.0 ,          0.0 ,-188.71344513483317 ,-379.20089928211013 ,-188.57655655141022 ,-756.4908497268209  ,110.0175806679201    ,252.16360032278448  ,190.55601103002257   ,-249.37907850697945   ,-439.8612260697346  ,-0.5137166393110857     ,-249.23956165152543 ,          0.0 ,          0.0 ,-249.37640147648094  ,-439.8638793619955  ,-249.23956165152543 ,-938.4798662282395  ,110.0175806679201    ,312.82660542289966   ,190.55601103002257   ,-2.0690628622860447e-07 ,-4.806312963618615e-05  ,-1.415083347399698e-06  ,      0.0 ,      0.0 ,      0.0 ,-1.9629204870756186e-07 ,-4.807374677766183e-05  ,      0.0 ,-4.8270038961683716e-05 ,2.7765228801800757e-05 ,1.0                  ,-0.003407940031970097   ,-3.395559883373951e-05  ,0.0                     ,0.003408122082776031   ,-60.663008459073076    ,0.0 ,0.0                   ,0.0                     ,        0.0 ,        0.0 , 0.0
 0.0 ,0.0 ,           0.0 ,            0.0 ,            0.0 ,            0.0 ,              0.0 ,                   0.0 ,1080.0 ,50.19702 ,-24.96546 ,           0.0 ,           0.0 ,       0.0 ,-62.85311      ,-18.68015   ,0.001316291      ,0.00119643       ,                 0.0 ,             0.0 ,             0.0 ,                 0.0 ,                 0.0 ,        0.0 ,2.7682073198093864     ,            0.0 ,            0.0 ,            0.0 ,              0.0 ,                   0.0 ,  0.0 ,0.0 , 979.0115173985137   ,1.0                ,0.0 ,-189.12347658602354 ,-378.5703756031197  ,0.1674427204067665      ,-188.59913745708815 ,          0.0 ,          0.0 ,-189.12106295729097 ,-378.57281418221754 ,-188.59913745708815 ,-756.293016367694   ,109.53110540655929   ,252.097656013174    ,189.71347924178633   ,-250.7651329861352    ,-440.2120836750594  ,0.1674427204067665      ,-250.24086890683452 ,          0.0 ,          0.0 ,-250.7627460788653   ,-440.2144705823292  ,-250.24086890683452 ,-941.2181122894917  ,109.53110540655929   ,313.7393874629204    ,189.71347924178633   ,-3.93214693645231e-06   ,-4.4155217062013085e-05 ,-1.2170961351497967e-06 ,      0.0 ,      0.0 ,      0.0 ,-3.922407997980296e-06  ,-4.4164956294902274e-05 ,      0.0 ,-4.808736724372042e-05  ,2.4527079542116252e-05 ,0.9006644322931447   ,0.26391088909893495     ,-0.0007016674478822102  ,-9.181890042886313e-06  ,0.0033039275078829214  ,-47.71940208354908     ,0.0 ,-13.92163085692865    ,-13.92163085692865      ,        0.0 ,        0.0 , 0.0
 0.0 ,0.0 ,           0.0 ,            0.0 ,            0.0 ,            0.0 ,              0.0 ,                   0.0 ,1081.0 ,48.3232  ,-25.12905 ,           0.0 ,           0.0 ,       0.0 ,-64.45223      ,-18.68383   ,-0.02076145      ,7.152846e-05     ,                 0.0 ,             0.0 ,             0.0 ,                 0.0 ,                 0.0 ,        0.0 ,1.519367851728062      ,            0.0 ,            0.0 ,            0.0 ,              0.0 ,                   0.0 ,  0.0 ,0.0 , 981.0221586141198   ,1.0                ,0.0 ,-188.79511376240922 ,-378.9473555632531  ,1.1630702474105847      ,-188.76481487735248 ,          0.0 ,          0.0 ,-188.7840809547232  ,-378.95833865029346 ,-188.76481487735248 ,-756.507285301737   ,109.8030002330764    ,252.16907870703503  ,190.1843831741344    ,-253.05663422252778   ,-443.20887712209395 ,1.1630702474105847      ,-253.02638561682537 ,          0.0 ,          0.0 ,-253.0456522342097   ,-443.21990883105775 ,-253.02638561682537 ,-949.2918980601694  ,109.8030002330764    ,316.43064944650786   ,190.1843831741344    ,-2.878190738788208e-06  ,-1.689488004232192e-05  ,-3.0158948158521947e-07 ,      0.0 ,      0.0 ,      0.0 ,-2.8765281927408105e-06 ,-1.6896544467696825e-05 ,      0.0 ,-1.9773075141443684e-05 ,9.040425910861346e-06  ,0.8132324612957946   ,0.5053827524565739      ,-0.0010144312921467125  ,-9.379119472839767e-05  ,0.0028110744364658645  ,-35.786983618654446    ,0.0 ,-28.473562055847673   ,-28.473562055847673     ,        0.0 ,        0.0 , 0.0
 0.0 ,0.0 ,           0.0 ,            0.0 ,            0.0 ,            0.0 ,              0.0 ,                   0.0 ,1082.0 ,46.45006 ,-25.34352 ,           0.0 ,           0.0 ,       0.0 ,-66.56007      ,-18.68752   ,-0.02116926      ,-0.001670458     ,                 0.0 ,             0.0 ,             0.0 ,                 0.0 ,                 0.0 ,        0.0 ,0.49344547074214967    ,            0.0 ,            0.0 ,            0.0 ,              0.0 ,                   0.0 ,  0.0 ,0.0 , 982.2166032003132   ,1.0                ,0.0 ,-189.6803473284153  ,-383.0600873751604  ,0.9790120340847988      ,-190.340239699396   ,          0.0 ,          0.0 ,-189.67532935774975 ,-383.06510434959125 ,-190.340239699396   ,-763.0806744029717  ,111.46272966853      ,254.36022480099058  ,193.05906287482898   ,-255.19930934738113   ,-448.5790000495792  ,0.9790120340847988      ,-255.85920171836182 ,          0.0 ,          0.0 ,-255.19429237295031  ,-448.58406736479185 ,-255.85920171836182 ,-959.6375604598693  ,111.46272966853      ,319.87918681995643   ,193.05906287482898   ,4.481235404899718e-07   ,-2.727889430184818e-05  ,-9.603845311324434e-07  ,      0.0 ,      0.0 ,      0.0 ,4.564373071592238e-07   ,-2.728720392357548e-05  ,      0.0 ,-2.6830766863138992e-05 ,1.588767600303741e-05  ,0.8155312069089249   ,0.5024562083361042      ,-0.001212228984248802   ,-7.722621962031968e-06  ,0.0009586597857257522  ,-29.082872663400597    ,0.0 ,-36.434993102252506   ,-36.434993102252506     ,        0.0 ,        0.0 , 0.0
 0.0 ,0.0 ,           0.0 ,            0.0 ,            0.0 ,            0.0 ,              0.0 ,                   0.0 ,1083.0 ,44.57537 ,-25.59289 ,           0.0 ,           0.0 ,       0.0 ,-69.01673      ,-18.69122   ,-0.0113087       ,-0.0003191977    ,                 0.0 ,             0.0 ,             0.0 ,                 0.0 ,                 0.0 ,        0.0 ,0.9916760961833455     ,            0.0 ,            0.0 ,            0.0 ,              0.0 ,                   0.0 ,  0.0 ,0.0 , 983.4244861039199   ,1.0                ,0.0 ,-191.06737945155407 ,-387.25115176391137 ,0.4650110377672424      ,-191.92540219762105 ,          0.0 ,          0.0 ,-191.06431523019563 ,-387.25416633699064 ,-191.92540219762105 ,-770.2439829324171  ,113.02260179095256   ,256.74801086023206  ,195.76082517353007   ,-257.9835917273672    ,-454.16736403972436 ,0.4650110377672424      ,-258.84166399276467 ,          0.0 ,          0.0 ,-257.9805771542878   ,-454.17042826108286 ,-258.84166399276467 ,-970.9928673565088  ,113.02260179095256   ,323.66422313604505   ,195.76082517353007   ,3.0767616388066366e-06  ,-5.6679299680785644e-05 ,-1.7432395626278528e-06 ,      0.0 ,      0.0 ,      0.0 ,3.0906867332722186e-06  ,-5.6693223276776456e-05 ,      0.0 ,-5.360253753518033e-05  ,3.36596620491097e-05   ,0.8213032068815351   ,0.4940929707650429      ,-0.0010829833664575143  ,-3.4860519257310525e-06 ,0.0011004525597300377  ,-29.870814651217763    ,0.0 ,-37.0443316368895     ,-37.0443316368895       ,        0.0 ,        0.0 , 0.0
 0.0 ,0.0 ,           0.0 ,            0.0 ,            0.0 ,            0.0 ,              0.0 ,                   0.0 ,1084.0 ,42.69868 ,-25.87791 ,           0.0 ,           0.0 ,       0.0 ,-71.82964      ,-18.69494   ,-0.00593677      ,-0.00028855      ,                 0.0 ,             0.0 ,             0.0 ,                 0.0 ,                 0.0 ,        0.0 ,3.4847359430659584     ,            0.0 ,            0.0 ,            0.0 ,              0.0 ,                   0.0 ,  0.0 ,0.0 , 984.5532021590177   ,1.0                ,0.0 ,-192.34345587388125 ,-390.00834495200075 ,-0.4429194498715514     ,-193.44634001183482 ,          0.0 ,          0.0 ,-192.33868058267257 ,-390.013169350031   ,-193.44634001183482 ,-775.7981408377168  ,113.8089904370706    ,258.59939707033095  ,197.1229584195501    ,-262.89545496086254   ,-460.5602942989334  ,-0.4429194498715514     ,-263.99828935876747 ,          0.0 ,          0.0 ,-262.89063056283237  ,-460.5651193301908  ,-263.99828935876747 ,-987.453840111667   ,113.8089904370706    ,329.1513464172635    ,197.1229584195501    ,1.4772052211190454e-06  ,-4.71466060664442e-05   ,-1.6711480852080218e-06 ,      0.0 ,      0.0 ,      0.0 ,1.5010258396627382e-06  ,-4.7170422146194036e-05 ,      0.0 ,-4.566939930066623e-05  ,2.7677391420238235e-05 ,0.8214902417241101   ,0.4950131512679601      ,-0.002852345542531287   ,-1.2780122122328203e-05 ,0.001254092657252576   ,-31.421212012282005    ,0.0 ,-39.127892851633575   ,-39.127892851633575     ,        0.0 ,        0.0 , 0.0
 0.0 ,0.0 ,           0.0 ,            0.0 ,            0.0 ,            0.0 ,              0.0 ,                   0.0 ,1085.0 ,40.82325 ,-26.22206 ,           0.0 ,           0.0 ,       0.0 ,-75.23337      ,-18.69872   ,-0.005683505     ,-0.0007652462    ,                 0.0 ,             0.0 ,             0.0 ,                 0.0 ,                 0.0 ,        0.0 ,1.0049143567983303     ,            0.0 ,            0.0 ,            0.0 ,              0.0 ,                   0.0 ,  0.0 ,0.0 , 985.9382485872816   ,1.0                ,0.0 ,-193.61348602736837 ,-393.0018019204225  ,-1.3472530235740967     ,-195.05227089439967 ,          0.0 ,          0.0 ,-193.60115321703637 ,-393.01418478143336 ,-195.05227089439967 ,-781.6676086978305  ,114.71455403636216   ,260.55586966218357  ,198.6915204367088    ,-268.07982141931114   ,-467.4680872616865  ,-1.3472530235740967     ,-269.5185562356636  ,          0.0 ,          0.0 ,-268.0674385583003   ,-467.48047012269734 ,-269.5185562356636  ,-1005.0663150686977 ,114.71455403636216   ,335.02215500344755   ,198.6915204367088    ,3.9107099873318827e-07  ,-2.489835973550455e-05  ,-1.274635244805186e-06  ,      0.0 ,      0.0 ,      0.0 ,4.071232414795676e-07   ,-2.4914416349944114e-05 ,      0.0 ,-2.450728898799995e-05  ,1.4503302126147032e-05 ,0.6424765211809209   ,0.9980447466658142      ,-0.002823532264441677   ,-0.00018523378770221336 ,4.863274238976308e-06  ,-0.11890875929061329   ,0.0 ,-74.34452594755001    ,-74.34452594755001      ,        0.0 ,        0.0 , 0.0
 0.0 ,0.0 ,           0.0 ,            0.0 ,            0.0 ,            0.0 ,              0.0 ,                   0.0 ,1086.0 ,38.94823 ,-26.65613 ,           0.0 ,           0.0 ,       0.0 ,-79.53531      ,-18.7026    ,-0.002318628     ,-0.000481774     ,                 0.0 ,             0.0 ,             0.0 ,                 0.0 ,                 0.0 ,        0.0 ,1.0082774655491704     ,            0.0 ,            0.0 ,            0.0 ,              0.0 ,                   0.0 ,  0.0 ,0.0 , 988.0312612481113   ,1.0                ,0.0 ,-195.62500333993376 ,-396.8992400386625  ,-2.2384227239090566     ,-197.0511516646624  ,          0.0 ,          0.0 ,-195.59921980936915 ,-396.9249244740451  ,-197.0511516646624  ,-789.5753950432586  ,115.81866901566083   ,263.1917980718374   ,200.6037721720788    ,-274.3826778834699    ,-475.65691548701665 ,-2.2384227239090566     ,-275.8089262081985  ,          0.0 ,          0.0 ,-274.35699344808734  ,-475.68264897904555 ,-275.8089262081985  ,-1025.8487230438143 ,115.81866901566083   ,341.9495225768378    ,200.6037721720788    ,4.1086830954996513e-07  ,-2.444441267186952e-05  ,-1.3946899906936186e-06 ,      0.0 ,      0.0 ,      0.0 ,4.3042387838386993e-07  ,-2.4463967091589745e-05 ,      0.0 ,-2.403354359480123e-05  ,1.4250158379967037e-05 ,0.8183155077844292   ,0.5077177272004023      ,-0.0021517942759718173  ,-2.6643923768218665e-06 ,0.0009901353098109356  ,-35.49034138863714     ,0.0 ,-43.26551158761811    ,-43.26551158761811      ,        0.0 ,        0.0 , 0.0
 0.0 ,0.0 ,           0.0 ,            0.0 ,            0.0 ,            0.0 ,              0.0 ,                   0.0 ,1087.0 ,37.06589 ,-27.15834 ,           0.0 ,           0.0 ,       0.0 ,-84.51685      ,-18.70666   ,-0.0006759043    ,2.80497e-05      ,                 0.0 ,             0.0 ,             0.0 ,                 0.0 ,                 0.0 ,        0.0 ,1.9598646796202805     ,            0.0 ,            0.0 ,            0.0 ,              0.0 ,                   0.0 ,  0.0 ,0.0 , 991.245700319361    ,1.0                ,0.0 ,-198.0889468247786  ,-401.4830726730691  ,-2.908377651183713      ,-199.26544254637366 ,          0.0 ,          0.0 ,-198.04534589244378 ,-401.52662489273024 ,-199.26544254637366 ,-798.8374133315476  ,117.12935427711571   ,266.27912153962467  ,202.8740107748118    ,-281.094278506796     ,-484.4884556424129  ,-2.908377651183713      ,-282.27082551571743 ,          0.0 ,          0.0 ,-281.0507248482555   ,-484.5319565747477  ,-282.27082551571743 ,-1047.8538994412177 ,117.12935427711571   ,349.2845004954364    ,202.8740107748118    ,1.187349505785339e-07   ,-4.718088922906364e-05  ,-2.7200792859965323e-06 ,      0.0 ,      0.0 ,      0.0 ,1.587385496305985e-07   ,-4.722089407162315e-05  ,      0.0 ,-4.7062150077179536e-05 ,2.7313311066722677e-05 ,0.642262275018123    ,1.0                     ,-0.0038784336187226076  ,-1.0601424053493607e-05 ,0.0                    ,0.003878450345542808   ,0.0 ,-83.00536597773308    ,-83.00536597773308      ,        0.0 ,        0.0 , 0.0
 0.0 ,0.0 ,           0.0 ,            0.0 ,            0.0 ,            0.0 ,              0.0 ,                   0.0 ,1088.0 ,35.13058 ,-27.49109 ,           0.0 ,           0.0 ,       0.0 ,-87.80232      ,-18.71086   ,0.002374519      ,7.613083e-06     ,                 0.0 ,             0.0 ,             0.0 ,                 0.0 ,                 0.0 ,        0.0 ,2.485993838652867      ,            0.0 ,            0.0 ,            0.0 ,              0.0 ,                   0.0 ,  0.0 ,0.0 , 989.9672940560191   ,1.0                ,0.0 ,-199.56737867525322 ,-403.89465379073755 ,-3.5823200375280124     ,-200.64533453589826 ,          0.0 ,          0.0 ,-199.504474327458   ,-403.957458723324   ,-200.64533453589826 ,-804.1072675866802  ,117.71305512175506   ,268.0357227238238   ,203.88493979626682   ,-286.13481609997547   ,-490.462091800251   ,-3.5823200375280124     ,-287.2127725454118  ,          0.0 ,          0.0 ,-286.0719609363554   ,-490.52489614804625 ,-287.2127725454118  ,-1063.8095791821602 ,117.71305512175506   ,354.60320933272124   ,203.88493979626682   ,-5.793123630450776e-07  ,-4.328447418538886e-05  ,-3.189596333855542e-06  ,      0.0 ,      0.0 ,      0.0 ,-5.133979570310076e-07  ,-4.3350390372501824e-05 ,      0.0 ,-4.386378615689206e-05  ,2.4882298378116146e-05 ,0.6416249990816544   ,1.0                     ,-0.0046774786443571055  ,-1.3216436927953441e-05 ,0.0                    ,0.00467749840300307    ,0.0 ,-86.56745727382967    ,-86.56745727382967      ,        0.0 ,        0.0 , 0.0
 0.0 ,0.0 ,           0.0 ,            0.0 ,            0.0 ,            0.0 ,              0.0 ,                   0.0 ,1089.0 ,33.19096 ,-27.74923 ,           0.0 ,           0.0 ,       0.0 ,-90.34064      ,-18.71516   ,0.004194753      ,-0.0002830245    ,                 0.0 ,             0.0 ,             0.0 ,                 0.0 ,                 0.0 ,        0.0 ,1.9925883549015122     ,            0.0 ,            0.0 ,            0.0 ,              0.0 ,                   0.0 ,  0.0 ,0.0 , 989.4892424415962   ,1.0                ,0.0 ,-200.99189695555623 ,-406.7549213494227  ,-4.059406626070091      ,-202.06798626830044 ,          0.0 ,          0.0 ,-200.91080813036797 ,-406.835910174611   ,-202.06798626830044 ,-809.8147045732794  ,118.55831002067437   ,269.9382184578555   ,205.348971143933     ,-289.7124340562144    ,-495.4755085092035  ,-4.059406626070091      ,-290.78852373954095 ,          0.0 ,          0.0 ,-289.63139529014876  ,-495.55649770497405 ,-290.78852373954095 ,-1075.976017475828  ,118.55831002067437   ,358.6588056176363    ,205.348971143933     ,-5.405365594690057e-07  ,-4.704589793156322e-05  ,-4.623358808402838e-06  ,      0.0 ,      0.0 ,      0.0 ,-4.258593082008014e-07  ,-4.716057622918472e-05  ,      0.0 ,-4.7586438716728e-05    ,2.7106328742606665e-05 ,0.8220694678953431   ,0.49756684652165406     ,-0.0018346765337757605  ,-7.082285720423677e-06  ,0.0018419344269287152  ,-40.02347675668897     ,0.0 ,-48.69526521512038    ,-48.69526521512038      ,        0.0 ,        0.0 , 0.0
 0.0 ,0.0 ,           0.0 ,            0.0 ,            0.0 ,            0.0 ,              0.0 ,                   0.0 ,1090.0 ,31.26938 ,-27.97907 ,           0.0 ,           0.0 ,       0.0 ,-92.5946       ,-18.71961   ,0.00606097       ,-0.0001678172    ,                 0.0 ,             0.0 ,             0.0 ,                 0.0 ,                 0.0 ,        0.0 ,2.9932229525576686     ,            0.0 ,            0.0 ,            0.0 ,              0.0 ,                   0.0 ,  0.0 ,0.0 , 990.3047415640208   ,0.9999999999999999 ,0.0 ,-202.384129205668   ,-408.8863107770747  ,-4.565232668297472      ,-203.2458840710612  ,          0.0 ,          0.0 ,-202.28202433270673 ,-408.9884147297803  ,-203.2458840710612  ,-814.5163231335482  ,119.06473923377462   ,271.50544112536636  ,206.22621287488894   ,-293.1500735899927    ,-499.65225632420595 ,-4.565232668297472      ,-294.01177903678916 ,          0.0 ,          0.0 ,-293.0479696372871   ,-499.7543602769116  ,-294.01177903678916 ,-1086.8142045922605 ,119.06473923377462   ,362.2713864299467    ,206.22621287488894   ,-6.70640970258512e-07   ,-4.8967084082401476e-05 ,-5.811713761925263e-06  ,      0.0 ,      0.0 ,      0.0 ,-4.949184785735882e-07  ,-4.914280197615217e-05  ,      0.0 ,-4.963772190511456e-05  ,2.823082792605799e-05  ,0.6446437010637963   ,0.9907635825589072      ,-0.003060275164590739   ,-8.075235175469227e-06  ,3.386097264572084e-05  ,-0.7327400670166954    ,0.0 ,-90.0301300162186     ,-90.0301300162186       ,        0.0 ,        0.0 , 0.0
 0.0 ,0.0 ,           0.0 ,            0.0 ,            0.0 ,            0.0 ,              0.0 ,                   0.0 ,1091.0 ,29.37447 ,-28.19985 ,           0.0 ,           0.0 ,       0.0 ,-94.75595      ,-18.72425   ,0.007574369      ,0.0003505867     ,                 0.0 ,             0.0 ,             0.0 ,                 0.0 ,                 0.0 ,        0.0 ,1.9764643601986314     ,            0.0 ,            0.0 ,            0.0 ,              0.0 ,                   0.0 ,  0.0 ,0.0 , 992.7008486719087   ,1.0                ,0.0 ,-203.05020068949972 ,-409.60504358358315 ,-4.951644295410469      ,-203.93396859906    ,          0.0 ,          0.0 ,-202.9314889209003  ,-409.7237553521826  ,-203.93396859906    ,-816.5892123500907  ,119.10329612895823   ,272.19642076125064  ,206.29296795465507   ,-296.79911078673445   ,-503.3540030924269  ,-4.951644295410469      ,-297.6828786962948  ,          0.0 ,          0.0 ,-296.68039901813506  ,-503.4727148610263  ,-297.6828786962948  ,-1097.8362921860812 ,119.10329612895823   ,365.94533085848536   ,206.29296795465507   ,-3.723378196675073e-07  ,-2.5667334649075923e-05 ,-3.3149452954526564e-06 ,      0.0 ,      0.0 ,      0.0 ,-2.641931016187889e-07  ,-2.5775476896544193e-05 ,      0.0 ,-2.6039670887571943e-05 ,1.4805803227787759e-05 ,0.8218639354421836   ,0.4928048032876543      ,-0.0020731759010264987  ,-4.573058248660105e-06  ,0.0015556560112278694  ,-53.22896861735977     ,0.0 ,-40.51872008617077    ,-40.51872008617077      ,        0.0 ,        0.0 , 0.0
 0.0 ,0.0 ,           0.0 ,            0.0 ,            0.0 ,            0.0 ,              0.0 ,                   0.0 ,1092.0 ,27.50883 ,-28.43919 ,           0.0 ,           0.0 ,       0.0 ,-97.09985      ,-18.72921   ,0.004235337      ,-0.0004158902    ,                 0.0 ,             0.0 ,             0.0 ,                 0.0 ,                 0.0 ,        0.0 ,2.499638957791846      ,            0.0 ,            0.0 ,            0.0 ,              0.0 ,                   0.0 ,  0.0 ,0.0 , 992.9917640779194   ,1.0                ,0.0 ,-205.30222122403538 ,-413.0343123085834  ,-5.866874450505913      ,-205.6171699640275  ,          0.0 ,          0.0 ,-205.13667009217272 ,-413.1999134524807  ,-205.6171699640275  ,-823.953704117223   ,119.98689464677834   ,274.6512511615372   ,207.8234187647558    ,-300.33661137356114   ,-508.0686524460744  ,-5.866874450505913      ,-300.65151010151857 ,          0.0 ,          0.0 ,-300.17101022966375  ,-508.2342535899719  ,-300.65151010151857 ,-1109.0567221195981 ,119.98689464677834   ,369.6855912990282    ,207.8234187647558    ,-1.0762230314402148e-06 ,-4.9876829846983476e-05 ,-7.074883284013717e-06  ,      0.0 ,      0.0 ,      0.0 ,-8.202209241156537e-07  ,-5.013283188717453e-05  ,      0.0 ,-5.0953050773208295e-05 ,2.871090025736518e-05  ,0.8192125567536224   ,0.498869919946571       ,-0.0010934541896101184  ,1.32229130601626e-06    ,0.001250429955545302   ,-52.81544354735297     ,0.0 ,-42.21782074303625    ,-42.21782074303625      ,        0.0 ,        0.0 , 0.0
 0.0 ,0.0 ,           0.0 ,            0.0 ,            0.0 ,            0.0 ,              0.0 ,                   0.0 ,1093.0 ,25.67098 ,-28.76002 ,           0.0 ,           0.0 ,       0.0 ,-100.2525      ,-18.73477   ,0.004311658      ,-0.000487408     ,                 0.0 ,             0.0 ,             0.0 ,                 0.0 ,                 0.0 ,        0.0 ,3.959282674637495      ,            0.0 ,            0.0 ,            0.0 ,              0.0 ,                   0.0 ,  0.0 ,0.0 , 993.4286564306188   ,1.0                ,0.0 ,-206.94549874639443 ,-415.80359506714285 ,-6.0400392541794865     ,-207.15888984077742 ,          0.0 ,          0.0 ,-206.77083991264672 ,-415.978304373578   ,-207.15888984077742 ,-829.9080341270021  ,120.67413598778391   ,276.63604380417127  ,209.01374356859844   ,-305.18832121084444   ,-514.0464161743487  ,-6.0400392541794865     ,-305.40166183254007 ,          0.0 ,          0.0 ,-305.0136119044093   ,-514.2211254807838  ,-305.40166183254007 ,-1124.636396624881  ,120.67413598778391   ,374.87881579593386   ,209.01374356859844   ,-1.5367561591998866e-06 ,-4.876313038184422e-05  ,-7.709677741452893e-06  ,      0.0 ,      0.0 ,      0.0 ,-1.2232229685681987e-06 ,-4.907666216823206e-05  ,      0.0 ,-5.02998846171437e-05   ,2.7988026920591553e-05 ,0.9950931021880416   ,0.011104550601943278    ,-3.4744157974898995e-05 ,5.0597723672761525e-08  ,0.0024678961176961777  ,-97.0587093436445      ,0.0 ,-1.1840626717544207   ,-1.1840626717544207     ,        0.0 ,        0.0 , 0.0
 0.0 ,0.0 ,           0.0 ,            0.0 ,            0.0 ,            0.0 ,              0.0 ,                   0.0 ,1094.0 ,23.85612 ,-29.25335 ,           0.0 ,           0.0 ,       0.0 ,-105.1186      ,-18.74149   ,0.00477694       ,0.0001068172     ,                 0.0 ,             0.0 ,             0.0 ,                 0.0 ,                 0.0 ,        0.0 ,3.5045961889224344     ,            0.0 ,            0.0 ,            0.0 ,              0.0 ,                   0.0 ,  0.0 ,0.0 , 997.9218458363786   ,1.0                ,0.0 ,-209.38209453543917 ,-420.07007700115724 ,-5.939168317136522      ,-209.46855261748928 ,          0.0 ,          0.0 ,-209.2143670962844  ,-420.23785489993094 ,-209.46855261748928 ,-838.9207746137047  ,121.76121057764891   ,279.6402832811714   ,210.89653766545916   ,-312.57570948010505   ,-523.2637167160137  ,-5.939168317136522      ,-312.66209233234576 ,          0.0 ,          0.0 ,-312.4079315813314   ,-523.431466925783   ,-312.66209233234576 ,-1148.501636380689  ,121.76121057764891   ,382.83384776621835   ,210.89653766545916   ,-1.8492612906852475e-06 ,-4.6753869721002076e-05 ,-7.701226163155525e-06  ,      0.0 ,      0.0 ,      0.0 ,-1.5212082973770354e-06 ,-4.708191990363592e-05  ,      0.0 ,-4.860312704087547e-05  ,2.6754840128270393e-05 ,1.0                  ,-0.0027939724239765744  ,-3.938949192391914e-06  ,0.0                     ,0.0027939761854670468  ,-103.19359300953002    ,0.0 ,0.0                   ,0.0                     ,        0.0 ,        0.0 , 0.0
 0.0 ,0.0 ,           0.0 ,            0.0 ,            0.0 ,            0.0 ,              0.0 ,                   0.0 ,1095.0 ,21.95516 ,-29.62388 ,           0.0 ,           0.0 ,       0.0 ,-108.747       ,-18.74918   ,0.006206085      ,2.190055e-05     ,                 0.0 ,             0.0 ,             0.0 ,                 0.0 ,                 0.0 ,        0.0 ,2.978330752900731      ,            0.0 ,            0.0 ,            0.0 ,              0.0 ,                   0.0 ,  0.0 ,0.0 , 997.2881488493524   ,1.0                ,0.0 ,-211.21491046935523 ,-423.0978885246186  ,-6.038978800795677      ,-211.17211668877383 ,          0.0 ,          0.0 ,-211.0421719225466  ,-423.27060104653253 ,-211.17211668877383 ,-845.4849135158229  ,122.49271438078384   ,281.82832081078686  ,212.16353191657527   ,-318.13175816931584   ,-530.0147873080416  ,-6.038978800795677      ,-318.08891547219685 ,          0.0 ,          0.0 ,-317.9590456474019   ,-530.1874998299555  ,-318.08891547219685 ,-1166.2355566157048 ,122.49271438078384   ,388.74517067767226   ,212.16353191657527   ,-1.7723490582538029e-06 ,-4.519998488732311e-05  ,-7.84643307313871e-06   ,      0.0 ,      0.0 ,      0.0 ,-1.4200500685103597e-06 ,-4.555228384104862e-05  ,      0.0 ,-4.6972330150481386e-05 ,2.5899648541606216e-05 ,1.0                  ,-0.003104279244985641   ,-2.8900533901036177e-06 ,0.0                     ,0.003104281690812523   ,-106.91687921680793    ,0.0 ,0.0                   ,0.0                     ,        0.0 ,        0.0 , 0.0
 0.0 ,0.0 ,           0.0 ,            0.0 ,            0.0 ,            0.0 ,              0.0 ,                   0.0 ,1096.0 ,20.00987 ,-29.95151 ,           0.0 ,           0.0 ,       0.0 ,-111.9329      ,-18.75822   ,0.007618716      ,-0.0001097846    ,                 0.0 ,             0.0 ,             0.0 ,                 0.0 ,                 0.0 ,        0.0 ,2.996648797927887      ,            0.0 ,            0.0 ,            0.0 ,              0.0 ,                   0.0 ,  0.0 ,0.0 , 997.162221100395    ,1.0                ,0.0 ,-213.28034778314304 ,-426.1830184442991  ,-6.0094648426868895     ,-213.1149296975008  ,          0.0 ,          0.0 ,-213.10923070469468 ,-426.3541354900995  ,-213.1149296975008  ,-852.5783457573827  ,123.11539572503422   ,284.19281523069566  ,213.2420803401339    ,-323.4109069305577    ,-536.3136277266259  ,-6.0094648426868895     ,-323.24543904512353 ,          0.0 ,          0.0 ,-323.2397898847573   ,-536.4847448050742  ,-323.24543904512353 ,-1182.9703238372194 ,123.11539572503422   ,394.32332457831836   ,213.2420803401339    ,-3.2706213743620857e-06 ,-4.3918028848014996e-05 ,-8.248985276878244e-06  ,      0.0 ,      0.0 ,      0.0 ,-2.855424246127365e-06  ,-4.433322897527028e-05  ,      0.0 ,-4.718864872102796e-05  ,2.4830126941078743e-05 ,0.9998804876881539   ,-0.002765894093731525   ,-4.087978522149054e-06  ,-2.705941168934532e-10  ,0.0030923762794073176  ,-110.09729312654022    ,0.0 ,-0.033244919122247384 ,-0.033244919122247384   ,        0.0 ,        0.0 , 0.0
 0.0 ,0.0 ,           0.0 ,            0.0 ,            0.0 ,            0.0 ,              0.0 ,                   0.0 ,1097.0 ,18.03767 ,-30.29047 ,           0.0 ,           0.0 ,       0.0 ,-115.213       ,-18.76918   ,0.00807896       ,7.733761e-05     ,                 0.0 ,             0.0 ,             0.0 ,                 0.0 ,                 0.0 ,        0.0 ,2.2522195001923953     ,            0.0 ,            0.0 ,            0.0 ,              0.0 ,                   0.0 ,  0.0 ,0.0 , 996.9831585868749   ,1.0                ,0.0 ,-215.5540105833179  ,-429.5588676127913  ,-5.84360291444366       ,-215.24854212062388 ,          0.0 ,          0.0 ,-215.3936808649483  ,-429.71914647294216 ,-215.24854212062388 ,-860.3613950947831  ,123.78284862300549   ,286.7871311261151   ,214.39813500973725   ,-329.2009910839488    ,-543.2058720332534  ,-5.84360291444366       ,-328.89552303557355 ,          0.0 ,          0.0 ,-329.04068700184797  ,-543.366201751623   ,-328.89552303557355 ,-1201.302710072607  ,123.78284862300549   ,400.43413726301486   ,214.39813500973725   ,-4.967853764531627e-06  ,-4.000822282995402e-05  ,-7.657315472617367e-06  ,      0.0 ,      0.0 ,      0.0 ,-4.5522388674380345e-06 ,-4.042383894908155e-05  ,      0.0 ,-4.497607510306783e-05  ,2.2152269016706898e-05 ,0.9061548232864369   ,0.25310375303002763     ,-0.0009457844986459278  ,-2.1247980501125054e-07 ,0.0032589366266951303  ,-87.54100911012713     ,0.0 ,-26.105053627205535   ,-26.105053627205535     ,        0.0 ,        0.0 , 0.0
 0.0 ,0.0 ,           0.0 ,            0.0 ,            0.0 ,            0.0 ,              0.0 ,                   0.0 ,1098.0 ,16.04208 ,-30.69748 ,           0.0 ,           0.0 ,       0.0 ,-119.1461      ,-18.78287   ,0.004363923      ,-0.0009432403    ,                 0.0 ,             0.0 ,             0.0 ,                 0.0 ,                 0.0 ,        0.0 ,2.98826054510752       ,            0.0 ,            0.0 ,            0.0 ,              0.0 ,                   0.0 ,  0.0 ,0.0 , 997.1476532906161   ,1.0                ,0.0 ,-218.3875316818025  ,-433.8842062169126  ,-5.503869221601736      ,-217.76754641826255 ,          0.0 ,          0.0 ,-218.2453632696811  ,-434.02632306919736 ,-217.76754641826255 ,-870.039232757141   ,124.71949333854997   ,290.01306866811956  ,216.02045103447836   ,-336.0703072400797    ,-551.5669550224077  ,-5.503869221601736      ,-335.4502940498121  ,          0.0 ,          0.0 ,-335.9281388279584   ,-551.7091234345291  ,-335.4502940498121  ,-1223.0877350270816 ,124.71949333854997   ,407.69584422639684   ,216.02045103447836   ,-5.828271886414699e-06  ,-3.7592201969581686e-05 ,-7.291742863484391e-06  ,      0.0 ,      0.0 ,      0.0 ,-5.41265298135912e-06   ,-3.8007822521237065e-05 ,      0.0 ,-4.342047331691911e-05  ,2.056596727414488e-05  ,0.913646297930739    ,0.2324531992657297      ,-0.0005961751401994465  ,-9.736947226997248e-07  ,0.003877892316750681   ,-86.78572208789737     ,0.0 ,-30.896461358669935   ,-30.896461358669935     ,        0.0 ,        0.0 , 0.0
 0.0 ,0.0 ,           0.0 ,            0.0 ,            0.0 ,            0.0 ,              0.0 ,                   0.0 ,1099.0 ,14.0239  ,-31.20553 ,           0.0 ,           0.0 ,       0.0 ,-124.053       ,-18.80024   ,-0.005129416     ,0.0002111208     ,                 0.0 ,             0.0 ,             0.0 ,                 0.0 ,                 0.0 ,        0.0 ,3.0274845041284735     ,            0.0 ,            0.0 ,            0.0 ,              0.0 ,                   0.0 ,  0.0 ,0.0 ,1005.1200979508278   ,1.0                ,0.0 ,-221.8506722704244  ,-439.8934726605903  ,-4.874927331053556      ,-220.9802890146085  ,          0.0 ,          0.0 ,-221.74019377878113 ,-440.0039569830873  ,-220.9802890146085  ,-882.724414005876   ,126.23465095107643   ,294.24147327890995  ,218.64478423716943   ,-344.3449149478357    ,-562.3876953982546  ,-4.874927331053556      ,-343.47456604192473 ,          0.0 ,          0.0 ,-344.23443645619244  ,-562.4981996604986  ,-343.47456604192473 ,-1250.207058895454  ,126.23465095107643   ,416.73571595632126   ,218.64478423716943   ,-5.193304775107479e-06  ,-3.852491920270394e-05  ,-7.3307885525687066e-06 ,      0.0 ,      0.0 ,      0.0 ,-4.793374870714681e-06  ,-3.89248521650784e-05   ,      0.0 ,-4.3718224864207e-05    ,2.1234931940294023e-05 ,0.8016294659899533   ,0.5411904213845268      ,-0.0013610281723876354  ,-2.2367580946302532e-06 ,0.0017061001287382229  ,-51.51795736030537     ,0.0 ,-70.97492512624804    ,-70.97492512624804      ,        0.0 ,        0.0 , 0.0
 0.0 ,0.0 ,           0.0 ,            0.0 ,            0.0 ,            0.0 ,              0.0 ,                   0.0 ,1100.0 ,11.94677 ,-31.4376  ,           0.0 ,           0.0 ,       0.0 ,-126.1779      ,-18.81981   ,-0.0001593832    ,0.0001409032     ,                 0.0 ,             0.0 ,             0.0 ,                 0.0 ,                 0.0 ,        0.0 ,1.50344145422495       ,            0.0 ,            0.0 ,            0.0 ,              0.0 ,                   0.0 ,  0.0 ,0.0 , 982.6994684646929   ,1.0                ,0.0 ,-224.0771387257263  ,-444.32243157096946 ,-4.287184435677038      ,-223.28819096321814 ,          0.0 ,          0.0 ,-223.99011796491288 ,-444.4095023767762  ,-223.28819096321814 ,-891.6877446731014  ,127.46237596893262   ,297.22926490603163  ,220.7712977096375    ,-348.72110181142205   ,-568.9663946566651  ,-4.287184435677038      ,-347.9321708302957  ,          0.0 ,          0.0 ,-348.63409763742106  ,-569.0534654624719  ,-347.9321708302957  ,-1265.6193839897778 ,127.46237596893262   ,421.8732445785397    ,220.7712977096375    ,-4.080184091245295e-06  ,-3.916958077423827e-05  ,-6.827791368141862e-06  ,      0.0 ,      0.0 ,      0.0 ,-3.7185820020627825e-06 ,-3.9531183704435566e-05 ,      0.0 ,-4.3249764371770576e-05 ,2.1836184523562007e-05 ,0.878540197829491    ,0.33223537558114985     ,-0.0007791527696753     ,-4.3767300799356253e-07 ,0.0014465671752695792  ,-76.6487172199863      ,0.0 ,-47.99446508486529    ,-47.99446508486529      ,        0.0 ,        0.0 , 0.0
 0.0 ,0.0 ,           0.0 ,            0.0 ,            0.0 ,            0.0 ,              0.0 ,                   0.0 ,1101.0 ,9.906092 ,-31.64148 ,           0.0 ,           0.0 ,       0.0 ,-127.9884      ,-18.84264   ,-0.003780718     ,-0.0007426902    ,                 0.0 ,             0.0 ,             0.0 ,                 0.0 ,                 0.0 ,        0.0 ,2.702528306364429      ,            0.0 ,            0.0 ,            0.0 ,              0.0 ,                   0.0 ,  0.0 ,0.0 , 973.529732542979    ,1.0                ,0.0 ,-226.5356567155959  ,-448.5874113786441  ,-3.2086447757189727     ,-225.62801313365117 ,          0.0 ,          0.0 ,-226.4816079731946  ,-448.64148694451933 ,-225.62801313365117 ,-900.7510573281127  ,128.51129667160842   ,300.2503534172694   ,222.58808176355336   ,-353.2211109845353    ,-575.2728656475834  ,-3.2086447757189727     ,-352.3134427642167  ,          0.0 ,          0.0 ,-353.16706224213397  ,-575.3269412134587  ,-352.3134427642167  ,-1280.8072396645093 ,128.51129667160842   ,426.9358315859872    ,222.58808176355336   ,-3.6653068354405924e-06 ,-3.76855432062637e-05   ,-5.839360158356777e-06  ,      0.0 ,      0.0 ,      0.0 ,-3.3681886699288602e-06 ,-3.798266137916139e-05  ,      0.0 ,-4.135085077346955e-05  ,2.1036108117989303e-05 ,0.9105286035036393   ,0.24458320188164812     ,-0.0009092411682683436  ,-4.1864908845141105e-07 ,0.0018005395550359966  ,-87.80415826043114     ,0.0 ,-38.880364070148936   ,-38.880364070148936     ,        0.0 ,        0.0 , 0.0
 0.0 ,0.0 ,           0.0 ,            0.0 ,            0.0 ,            0.0 ,              0.0 ,                   0.0 ,1102.0 ,7.896785 ,-31.84419 ,           0.0 ,           0.0 ,       0.0 ,-129.7525      ,-18.86894   ,-0.01078733      ,-9.40951e-05     ,                 0.0 ,             0.0 ,             0.0 ,                 0.0 ,                 0.0 ,        0.0 ,2.5131318388486714     ,            0.0 ,            0.0 ,            0.0 ,              0.0 ,                   0.0 ,  0.0 ,0.0 ,1003.0134212368529   ,1.0                ,0.0 ,-229.54282985867147 ,-454.061911348251   ,-1.608048444159527      ,-228.53620224047356 ,          0.0 ,          0.0 ,-229.51632513876535 ,-454.08836736095617 ,-228.53620224047356 ,-912.140894078507   ,129.94063333491715   ,304.04696425850517  ,225.06377950588657   ,-358.1732773130325    ,-582.6923588026121  ,-1.608048444159527      ,-357.1666990433388  ,          0.0 ,          0.0 ,-358.1468219416306   ,-582.7188641638214  ,-357.1666990433388  ,-1298.032037103278  ,129.94063333491715   ,432.67746172305857   ,225.06377950588657   ,-3.093815468647593e-06  ,-3.707416508991439e-05  ,-4.445290663477731e-06  ,      0.0 ,      0.0 ,      0.0 ,-2.901902406208144e-06  ,-3.726607908140278e-05  ,      0.0 ,-4.0167980533113705e-05 ,2.0730163692172708e-05 ,0.8176361679997295   ,0.4986429280587547      ,-0.0011108195838442413  ,4.687183309661767e-07   ,0.0012551508081714822  ,-58.67485041022098     ,0.0 ,-69.95453824810824    ,-69.95453824810824      ,        0.0 ,        0.0 , 0.0
 0.0 ,0.0 ,           0.0 ,            0.0 ,            0.0 ,            0.0 ,              0.0 ,                   0.0 ,1103.0 ,5.908726 ,-32.04931 ,           0.0 ,           0.0 ,       0.0 ,-131.5076      ,-18.89856   ,-0.01923973      ,-0.001621929     ,                 0.0 ,             0.0 ,             0.0 ,                 0.0 ,                 0.0 ,        0.0 ,2.520238652776971      ,            0.0 ,            0.0 ,            0.0 ,              0.0 ,                   0.0 ,  0.0 ,0.0 ,1003.1973820012256   ,1.0                ,0.0 ,-232.68941192235212 ,-459.72529459806265 ,0.22998465828519926     ,-231.57786135596683 ,          0.0 ,          0.0 ,-232.6890075132394  ,-459.7256490253648  ,-231.57786135596683 ,-923.9926172381388  ,131.40162341148402   ,307.99757197509143  ,227.59423226996444   ,-363.3193033774057    ,-590.3551860531162  ,0.22998465828519926     ,-362.20780213639864 ,          0.0 ,          0.0 ,-363.31894829367116  ,-590.3555898057966  ,-362.20780213639864 ,-1315.882146252894  ,131.40162341148402   ,438.62741341195544   ,227.59423226996444   ,-1.981658491629194e-06  ,-3.625334422337511e-05  ,-3.5141872835388107e-06 ,      0.0 ,      0.0 ,      0.0 ,-1.8729548056266402e-06 ,-3.636204818620608e-05  ,      0.0 ,-3.8235002662853515e-05 ,2.0484570043454167e-05 ,0.6339677654791724   ,1.0                     ,-0.002344022191054734   ,-1.3756361043725595e-06 ,0.0                    ,0.0023440237244220325  ,0.0 ,-130.6298907622423    ,-130.6298907622423      ,        0.0 ,        0.0 , 0.0
 0.0 ,0.0 ,           0.0 ,            0.0 ,            0.0 ,            0.0 ,              0.0 ,                   0.0 ,1104.0 ,3.933549 ,-32.2555  ,           0.0 ,           0.0 ,       0.0 ,-133.2456      ,-18.93094   ,-0.04976348      ,0.001003475      ,                 0.0 ,             0.0 ,             0.0 ,                 0.0 ,                 0.0 ,        0.0 ,1.0120524667686248     ,            0.0 ,            0.0 ,            0.0 ,              0.0 ,                   0.0 ,  0.0 ,0.0 ,1004.2162435158987   ,1.0                ,0.0 ,-235.99792845683274 ,-468.0837053577833  ,3.4599172913769825      ,-235.6165344039491  ,          0.0 ,          0.0 ,-235.94428609291458 ,-468.1373477217014  ,-235.6165344039491  ,-939.6981688493044  ,134.15146881115044   ,313.2327064839759   ,232.3571462192714    ,-368.91676003653674   ,-601.0024869093713  ,3.4599172913769825      ,-368.53531595553716 ,          0.0 ,          0.0 ,-368.8631176726185   ,-601.0561292732895  ,-368.53531595553716 ,-1338.4545141910396 ,134.15146881115044   ,446.1515374329406    ,232.3571462192714    ,-1.0492084874564703e-06 ,-1.7505370434849898e-05 ,3.760257813805074e-07   ,      0.0 ,      0.0 ,      0.0 ,-1.0454057851746003e-06 ,-1.750916868192173e-05  ,      0.0 ,-1.855457596814507e-05  ,9.821158833363032e-06  ,0.8151756213605295   ,0.5047702228727421      ,-0.009030650523231414   ,-0.0015364276564067277  ,0.001818329244373843   ,-69.81680026388437     ,0.0 ,-63.09287103253102    ,-63.09287103253102      ,        0.0 ,        0.0 , 0.0
 0.0 ,0.0 ,           0.0 ,            0.0 ,            0.0 ,            0.0 ,              0.0 ,                   0.0 ,1105.0 ,3.951474 ,-34.1919  ,           0.0 ,           0.0 ,       0.0 ,-152.5593      ,-18.93597   ,-0.04833318      ,-0.0002648087    ,                 0.0 ,             0.0 ,             0.0 ,                 0.0 ,                 0.0 ,        0.0 ,1.5115802422495124     ,            0.0 ,            0.0 ,            0.0 ,              0.0 ,                   0.0 ,  0.0 ,0.0 ,1006.1528677681135   ,1.0                ,0.0 ,-242.32815896239754 ,-483.72373292747636 ,3.465738943230711       ,-242.91562884119918 ,          0.0 ,          0.0 ,-242.27837567300338 ,-483.7735157059519  ,-242.91562884119918 ,-968.9675207310731  ,139.24377858061837   ,322.98919002798914  ,241.1772885685574    ,-394.71356848479394   ,-636.1092416665801  ,3.465738943230711       ,-395.3010882274085  ,          0.0 ,          0.0 ,-394.6638350592127   ,-636.1589750921613  ,-395.3010882274085  ,-1426.123650831018  ,139.24377858061837   ,475.3746494141985    ,241.1772885685574    ,4.535223535598972e-06   ,-1.9033709640713182e-05 ,5.19371908794904e-07    ,      0.0 ,      0.0 ,      0.0 ,4.538084869562867e-06   ,-1.9036572898733257e-05 ,      0.0 ,-1.449848904994543e-05  ,1.2512648621736436e-05 ,1.0                  ,-0.010153671580299015   ,-0.0010588864349512282  ,0.0                     ,0.010230376355204324   ,-152.38545938620933    ,0.0 ,0.0                   ,0.0                     ,        0.0 ,        0.0 , 0.0
 0.0 ,0.0 ,           0.0 ,            0.0 ,            0.0 ,            0.0 ,              0.0 ,                   0.0 ,1106.0 ,3.947306 ,-36.12836 ,           0.0 ,           0.0 ,       0.0 ,-171.8888      ,-18.93948   ,-0.03539274      ,-0.0005929468    ,                 0.0 ,             0.0 ,             0.0 ,                 0.0 ,                 0.0 ,        0.0 ,1.9911600209311788     ,            0.0 ,            0.0 ,            0.0 ,              0.0 ,                   0.0 ,  0.0 ,0.0 , 949.9982527018974   ,1.0                ,0.0 ,-249.3637358435781  ,-498.3126140430754  ,3.1579919103895646      ,-250.1321916869124  ,          0.0 ,          0.0 ,-249.3230500251158  ,-498.3533007257401  ,-250.1321916869124  ,-997.8084428599717  ,143.54472767515995   ,332.60279798172456  ,248.62684885162707   ,-421.05365103075786   ,-670.0025300944575  ,3.1579919103895646      ,-421.8221068740921  ,          0.0 ,          0.0 ,-421.01296521229546  ,-670.0432159129199  ,-421.8221068740921  ,-1512.8787300004867 ,143.54472767515995   ,504.2927625257014    ,248.62684885162707   ,4.895517797621941e-06   ,-1.955075721241859e-05  ,1.1700285266394014e-06  ,      0.0 ,      0.0 ,      0.0 ,4.909509679089024e-06   ,-1.9564750089465683e-05 ,      0.0 ,-1.465524140595667e-05  ,1.294779182060787e-05  ,0.8236368341290611   ,0.49065955355923896     ,-0.001862803733596911   ,-5.229637435874223e-07  ,0.007156937169313465   ,-90.88908370175578     ,0.0 ,-80.79958116336944    ,-80.79958116336944      ,        0.0 ,        0.0 , 0.0
 0.0 ,0.0 ,           0.0 ,            0.0 ,            0.0 ,            0.0 ,              0.0 ,                   0.0 ,1107.0 ,5.927772 ,-36.02654 ,           0.0 ,           0.0 ,       0.0 ,-171.1568      ,-18.91086   ,-0.03747397      ,-0.0005292397    ,                 0.0 ,             0.0 ,             0.0 ,                 0.0 ,                 0.0 ,        0.0 ,1.992587255775415      ,            0.0 ,            0.0 ,            0.0 ,              0.0 ,                   0.0 ,  0.0 ,0.0 ,1008.7416775661025   ,1.0                ,0.0 ,-248.5603808394014  ,-494.910199476305   ,3.593996166850946       ,-248.66410616978735 ,          0.0 ,          0.0 ,-248.50788331577616 ,-494.9627458134876  ,-248.66410616978735 ,-992.1347842858415  ,142.2457472956698    ,330.71161164280466  ,246.3768346225596    ,-419.29661057011094   ,-665.646478020572   ,3.593996166850946       ,-419.4003349859894  ,          0.0 ,          0.0 ,-419.2441130464857   ,-665.6989755441971  ,-419.4003349859894  ,-1504.3429272347023 ,142.2457472956698    ,501.44779110157907   ,246.3768346225596    ,-9.820602079821369e-07  ,-1.6921371490194597e-05 ,4.1514663780505854e-06  ,      0.0 ,      0.0 ,      0.0 ,-7.148104521941651e-07  ,-1.7188623247714897e-05 ,      0.0 ,-1.7903434650477314e-05 ,9.724731066446638e-06  ,0.819762101345367    ,0.49541300086394535     ,-0.002338075520523075   ,-6.308264679920856e-07  ,0.007383637987451305   ,-80.42397647472988     ,0.0 ,-90.31098071960852    ,-90.31098071960852      ,        0.0 ,        0.0 , 0.0
 0.0 ,0.0 ,           0.0 ,            0.0 ,            0.0 ,            0.0 ,              0.0 ,                   0.0 ,1108.0 ,7.917941 ,-35.92755 ,           0.0 ,           0.0 ,       0.0 ,-170.4342      ,-18.88412   ,-0.02956194      ,-0.0003434378    ,                 0.0 ,             0.0 ,             0.0 ,                 0.0 ,                 0.0 ,        0.0 ,1.023971183484079      ,            0.0 ,            0.0 ,            0.0 ,              0.0 ,                   0.0 ,  0.0 ,0.0 ,1009.7623665869806   ,1.0                ,0.0 ,-246.78635305640628 ,-489.2657981643622  ,2.162955542029472       ,-245.99653182163672 ,          0.0 ,          0.0 ,-246.76681223239584 ,-489.285241145483   ,-245.99653182163672 ,-982.0485851995155  ,140.2409393580955    ,327.349544567229    ,242.90448607607922   ,-416.81504063097526   ,-659.2944361582048  ,2.162955542029472       ,-416.0251698154793  ,          0.0 ,          0.0 ,-416.7955491476833   ,-659.313928720052   ,-416.0251698154793  ,-1492.134743967533  ,140.2409393580955    ,497.3782319017899    ,242.90448607607922   ,-2.2687039065971527e-06 ,-1.6103847765352346e-05 ,1.4888510788990143e-06  ,      0.0 ,      0.0 ,      0.0 ,-2.2284371945931087e-06 ,-1.614411587849377e-05  ,      0.0 ,-1.8372551122214474e-05 ,8.748979161995745e-06  ,0.6393608051367294   ,1.0                     ,-0.007842592926217641   ,-0.0008810417354316186  ,0.0                    ,0.007907308719050434   ,0.0 ,-170.02873691528748   ,-170.02873691528748     ,        0.0 ,        0.0 , 0.0
 0.0 ,0.0 ,           0.0 ,            0.0 ,            0.0 ,            0.0 ,              0.0 ,                   0.0 ,1109.0 ,9.917566 ,-35.83865 ,           0.0 ,           0.0 ,       0.0 ,-169.7895      ,-18.8597    ,-0.02190575      ,-0.0007923194    ,                 0.0 ,             0.0 ,             0.0 ,                 0.0 ,                 0.0 ,        0.0 ,2.49443456654006       ,            0.0 ,            0.0 ,            0.0 ,              0.0 ,                   0.0 ,  0.0 ,0.0 ,1010.7980771429055   ,0.9999999999999999 ,0.0 ,-244.8357277810322  ,-484.57283869277904 ,0.3958976859818768      ,-243.7175500420036  ,          0.0 ,          0.0 ,-244.83475659214054 ,-484.5738593251274  ,-243.7175500420036  ,-973.1261672049554  ,138.73709570883892   ,324.3753894393474   ,240.29967224209122   ,-413.67944105540016   ,-653.4165026562877  ,0.3958976859818768      ,-412.56126207068763 ,          0.0 ,          0.0 ,-413.67846986650846  ,-653.4175725994953  ,-412.56126207068763 ,-1479.6572562063216 ,138.73709570883892   ,493.219052157172     ,240.29967224209122   ,-4.590991715994075e-06  ,-2.9632484632968742e-05 ,2.4202908165135722e-06  ,      0.0 ,      0.0 ,      0.0 ,-4.51127842553266e-06   ,-2.9712192020432926e-05 ,      0.0 ,-3.422347388924682e-05  ,1.6022032459547667e-05 ,0.6384676583468605   ,0.9999999999999999      ,-0.00470836859541336    ,-2.5045787753027756e-06 ,0.0                    ,0.004708369089847927   ,0.0 ,-168.84371202868402   ,-168.84371202868402     ,        0.0 ,        0.0 , 0.0
 0.0 ,0.0 ,           0.0 ,            0.0 ,            0.0 ,            0.0 ,              0.0 ,                   0.0 ,1110.0 ,11.92266 ,-35.77532 ,           0.0 ,           0.0 ,       0.0 ,-169.3742      ,-18.8379    ,-0.01302792      ,0.0004891697     ,                 0.0 ,             0.0 ,             0.0 ,                 0.0 ,                 0.0 ,        0.0 ,1.5221392346294906     ,            0.0 ,            0.0 ,            0.0 ,              0.0 ,                   0.0 ,  0.0 ,0.0 ,1010.7710874496211   ,1.0                ,0.0 ,-242.903355453867   ,-481.08951231749325 ,-0.888460249975645      ,-241.78921210037493 ,          0.0 ,          0.0 ,-242.8896550147803  ,-481.1031649705034  ,-241.78921210037493 ,-965.7820341197793  ,137.85142420735065   ,321.927346182542    ,238.76569487080133   ,-411.00132471541554   ,-649.1874313992389  ,-0.888460249975645      ,-409.88717932780287 ,          0.0 ,          0.0 ,-410.9876720624053   ,-649.2011342320518  ,-409.88717932780287 ,-1470.0760378361833 ,137.85142420735065   ,490.0253110162436    ,238.76569487080133   ,-4.290553957406006e-06  ,-3.2967173968510656e-05 ,1.4542194785866986e-06  ,      0.0 ,      0.0 ,      0.0 ,-4.206328674653068e-06  ,-3.305139680689312e-05  ,      0.0 ,-3.7257725556954035e-05 ,1.7992143928759278e-05 ,0.6386639349859595   ,1.0                     ,-0.0029609456341056777  ,2.1144267896498622e-07  ,0.0                    ,0.0029609456341056777  ,0.0 ,-168.09796722742792   ,-168.09796722742792     ,        0.0 ,        0.0 , 0.0
 0.0 ,0.0 ,           0.0 ,            0.0 ,            0.0 ,            0.0 ,              0.0 ,                   0.0 ,1111.0 ,13.89944 ,-35.80658 ,           0.0 ,           0.0 ,       0.0 ,-169.8742      ,-18.81916   ,0.006514591      ,0.0001626438     ,                 0.0 ,             0.0 ,             0.0 ,                 0.0 ,                 0.0 ,        0.0 ,1.0572130496419283     ,            0.0 ,            0.0 ,            0.0 ,              0.0 ,                   0.0 ,  0.0 ,0.0 ,1014.4962352877519   ,1.0                ,0.0 ,-241.1225270794136  ,-478.2576868765869  ,-1.854781547891438      ,-240.18975819978095 ,          0.0 ,          0.0 ,-241.10592483973218 ,-478.27423885041884 ,-240.18975819978095 ,-959.569921889932   ,137.1944992620792    ,319.8566232389936   ,237.6278995211495    ,-409.49105876970077   ,-646.6262185668741  ,-1.854781547891438      ,-408.55829179716983 ,          0.0 ,          0.0 ,-409.4745546229177   ,-646.642770540706   ,-408.55829179716983 ,-1464.6757528135333 ,137.1944992620792    ,488.22520710223193   ,237.6278995211495    ,-4.11697414222893e-06   ,-3.510215708691203e-05  ,3.9923240168415517e-07  ,      0.0 ,      0.0 ,      0.0 ,-4.090552747131414e-06  ,-3.512858127003143e-05  ,      0.0 ,-3.921913313470899e-05  ,1.9213234165590774e-05 ,0.8108478745646897   ,0.5206901882473877      ,-0.0011393313699393146  ,7.185682973710968e-07   ,0.0010393229035310944  ,-86.33663149132653     ,0.0 ,-82.03076042685998    ,-82.03076042685998      ,        0.0 ,        0.0 , 0.0
 0.0 ,0.0 ,           0.0 ,            0.0 ,            0.0 ,            0.0 ,              0.0 ,                   0.0 ,1112.0 ,15.65322 ,-36.24975 ,           0.0 ,           0.0 ,       0.0 ,-174.4449      ,-18.80526   ,-0.00135738      ,-0.001744213     ,                 0.0 ,             0.0 ,             0.0 ,                 0.0 ,                 0.0 ,        0.0 ,0.5695180972943805     ,            0.0 ,            0.0 ,            0.0 ,              0.0 ,                   0.0 ,  0.0 ,0.0 ,1010.1310006013895   ,1.0                ,0.0 ,-241.29302396810442 ,-479.67852542028294 ,-2.072627445324451      ,-240.67527893267146 ,          0.0 ,          0.0 ,-241.2714766790297  ,-479.70007270935764 ,-240.67527893267146 ,-961.6467808326122  ,137.8291995848649    ,320.5489412936008   ,238.7272271424818    ,-414.93565139946213   ,-653.3211528516406  ,-2.072627445324451      ,-414.31790636402917 ,          0.0 ,          0.0 ,-414.9141521816845   ,-653.3427001407154  ,-414.31790636402917 ,-1482.574712946534  ,137.8291995848649    ,494.1915731652149    ,238.7272271424818    ,-1.8149042815434866e-06 ,-1.8536213868112754e-05 ,1.0450746572025557e-06  ,      0.0 ,      0.0 ,      0.0 ,-1.7955119769504813e-06 ,-1.8555609493293994e-05 ,      0.0 ,-2.0351122653683236e-05 ,1.0234226442169802e-05 ,0.9840578058556257   ,0.03985393669756029     ,-0.0012740602923554524  ,-2.739976493352288e-08  ,0.004720555515340473   ,-165.55050979289757    ,0.0 ,-8.091954188673396    ,-8.091954188673396      ,        0.0 ,        0.0 , 0.0
 0.0 ,0.0 ,           0.0 ,            0.0 ,            0.0 ,            0.0 ,              0.0 ,                   0.0 ,1113.0 ,17.44787 ,-36.21688 ,           0.0 ,           0.0 ,       0.0 ,-174.2504      ,-18.79185   ,-0.005630164     ,7.505773e-05     ,                 0.0 ,             0.0 ,             0.0 ,                 0.0 ,                 0.0 ,        0.0 ,1.5385644505857907     ,            0.0 ,            0.0 ,            0.0 ,              0.0 ,                   0.0 ,  0.0 ,0.0 ,1011.9400938355595   ,1.0                ,0.0 ,-240.0927285032056  ,-478.04146250164223 ,-2.9456836185164392     ,-239.73417779500187 ,          0.0 ,          0.0 ,-240.05349663721324 ,-478.0806943676346  ,-239.73417779500187 ,-957.8683457280722  ,137.51736121430716   ,319.2894473803143   ,238.18708687130797   ,-413.23244389910417   ,-651.1811778975408  ,-2.9456836185164392     ,-412.8738931909004  ,          0.0 ,          0.0 ,-413.1932120331118   ,-651.2204097635331  ,-412.8738931909004  ,-1477.2873975657774 ,137.51736121430716   ,492.4292145697774    ,238.18708687130797   ,-2.9925449532461864e-06 ,-2.649740891061535e-05  ,-1.6948192276879246e-06 ,      0.0 ,      0.0 ,      0.0 ,-2.940277074511784e-06  ,-2.654967702545384e-05  ,      0.0 ,-2.9489956689643855e-05 ,1.4555146193681688e-05 ,0.8140415768107979   ,0.5153082011545506      ,-0.0024465801592618674  ,-3.196057604524113e-07  ,0.002710975113751961   ,-78.74885409525383     ,0.0 ,-94.38895473343447    ,-94.38895473343447      ,        0.0 ,        0.0 , 0.0
 0.0 ,0.0 ,           0.0 ,            0.0 ,            0.0 ,            0.0 ,              0.0 ,                   0.0 ,1114.0 ,19.31314 ,-36.08881 ,           0.0 ,           0.0 ,       0.0 ,-173.0943      ,-18.77938   ,-0.0001145517    ,1.313312e-05     ,                 0.0 ,             0.0 ,             0.0 ,                 0.0 ,                 0.0 ,        0.0 ,2.0                    ,            0.0 ,            0.0 ,            0.0 ,              0.0 ,                   0.0 ,  0.0 ,0.0 ,1013.2439012289879   ,1.0                ,0.0 ,-238.80944190167884 ,-476.09079787064877 ,-3.41245473116398       ,-238.6349024456776  ,          0.0 ,          0.0 ,-238.7573433971876  ,-476.1428963751399  ,-238.6349024456776  ,-953.5351422180051  ,137.0900016748078    ,317.84506431728624  ,237.44684541971816   ,-410.4088453704612    ,-647.6902282397816  ,-3.41245473116398       ,-410.2343328148105  ,          0.0 ,          0.0 ,-410.35677376632054  ,-647.7423267442728  ,-410.2343328148105  ,-1468.3332772574254 ,137.0900016748078    ,489.4444924191418    ,237.44684541971816   ,-4.062677103743761e-06  ,-3.5141040323610534e-05 ,-3.671562946822194e-06  ,      0.0 ,      0.0 ,      0.0 ,-3.9336975630571975e-06 ,-3.527002026495313e-05  ,      0.0 ,-3.9203718521656985e-05 ,1.9330424208148727e-05 ,0.9115579804793175   ,0.24355691374759955     ,-0.0009073410134420983  ,-1.5200483215592293e-07 ,0.002773818430894649   ,-126.70703854006297    ,0.0 ,-44.891485063721305   ,-44.891485063721305     ,        0.0 ,        0.0 , 0.0
 0.0 ,0.0 ,           0.0 ,            0.0 ,            0.0 ,            0.0 ,              0.0 ,                   0.0 ,1115.0 ,21.24299 ,-35.94389 ,           0.0 ,           0.0 ,       0.0 ,-171.7585      ,-18.76804   ,0.0008588483     ,-0.0003649829    ,                 0.0 ,             0.0 ,             0.0 ,                 0.0 ,                 0.0 ,        0.0 ,1.4982305229336323     ,            0.0 ,            0.0 ,            0.0 ,              0.0 ,                   0.0 ,  0.0 ,0.0 ,1017.4179289411412   ,1.0                ,0.0 ,-237.4987106116987  ,-474.0422479709031  ,-3.910233084634501      ,-237.3918435410538  ,          0.0 ,          0.0 ,-237.4334969280314  ,-474.1074604458768  ,-237.3918435410538  ,-948.9327507380143  ,136.655843818348     ,316.31093271455984  ,236.694838825693     ,-407.55095931572555   ,-644.0944966749298  ,-3.910233084634501      ,-407.4440934537742  ,          0.0 ,          0.0 ,-407.4857468407518   ,-644.1597103585973  ,-407.4440934537742  ,-1459.0895558417928 ,136.655843818348     ,486.36318262728025   ,236.694838825693     ,-3.1057354308520374e-06 ,-3.808125142015372e-05  ,-4.262022323809073e-06  ,      0.0 ,      0.0 ,      0.0 ,-2.966578770024821e-06  ,-3.822041199991134e-05  ,      0.0 ,-4.1186990364862176e-05 ,2.1281678982487857e-05 ,0.995639838743054    ,0.009206044132866359    ,-4.444603501952876e-05  ,-1.3407118692293805e-08 ,0.002880891141067316   ,-168.37469835997092    ,0.0 ,-1.677507068476378    ,-1.677507068476378      ,        0.0 ,        0.0 , 0.0
 0.0 ,0.0 ,           0.0 ,            0.0 ,            0.0 ,            0.0 ,              0.0 ,                   0.0 ,1116.0 ,23.23237 ,-35.79775 ,           0.0 ,           0.0 ,       0.0 ,-170.3994      ,-18.75781   ,0.002858313      ,9.148708e-05     ,                 0.0 ,             0.0 ,             0.0 ,                 0.0 ,                 0.0 ,        0.0 ,1.3508736839006592     ,            0.0 ,            0.0 ,            0.0 ,              0.0 ,                   0.0 ,  0.0 ,0.0 ,1019.6658802661636   ,1.0                ,0.0 ,-235.87843285754775 ,-471.841805742642   ,-3.9093392748530906     ,-235.95752068416522 ,          0.0 ,          0.0 ,-235.81195316844315 ,-471.90826826022214 ,-235.95752068416522 ,-943.6776928830845  ,136.2683492597185    ,314.55924216060475  ,236.02368850884554   ,-404.7019847168433    ,-640.6653740291426  ,-3.9093392748530906     ,-404.7810897149852  ,          0.0 ,          0.0 ,-404.63550502773865  ,-640.7318537182473  ,-404.7810897149852  ,-1450.1484633476682 ,136.2683492597185    ,483.3827940199003    ,236.02368850884554   ,-1.071330239564527e-06  ,-3.4279316894393364e-05 ,-3.204740825452948e-06  ,      0.0 ,      0.0 ,      0.0 ,-9.935579901383251e-07  ,-3.4357093562860655e-05 ,      0.0 ,-3.535065056272731e-05  ,1.955673331870658e-05  ,0.8797874362643819   ,0.33454264074898726     ,-0.0010909246087059366  ,-0.00034733167758410524 ,0.0014446552553718922  ,-119.20510621368494    ,0.0 ,-49.61726878591171    ,-49.61726878591171      ,        0.0 ,        0.0 , 0.0
 0.0 ,0.0 ,           0.0 ,            0.0 ,            0.0 ,            0.0 ,              0.0 ,                   0.0 ,1117.0 ,25.28238 ,-35.68102 ,           0.0 ,           0.0 ,       0.0 ,-169.3242      ,-18.7486    ,0.005738958      ,0.0005501945     ,                 0.0 ,             0.0 ,             0.0 ,                 0.0 ,                 0.0 ,        0.0 ,2.4346847951616946     ,            0.0 ,            0.0 ,            0.0 ,              0.0 ,                   0.0 ,  0.0 ,0.0 ,1023.0791320945815   ,1.0                ,0.0 ,-234.5560102503238  ,-469.9383548456162  ,-3.7891081508747604     ,-234.68364078344968 ,          0.0 ,          0.0 ,-234.49467495552258 ,-469.99963571074125 ,-234.68364078344968 ,-939.1779801296148  ,135.91437536559962   ,313.059344853097    ,235.41057930631837   ,-402.354687653432     ,-637.7370520692733  ,-3.7891081508747604     ,-402.4823924367829  ,          0.0 ,          0.0 ,-402.2933721791797   ,-637.7983675435255  ,-402.4823924367829  ,-1442.5740144407837 ,135.91437536559962   ,480.85804207675415   ,235.41057930631837   ,-5.950100236763746e-07  ,-3.390407406820096e-05  ,-3.5519801398154815e-06 ,      0.0 ,      0.0 ,      0.0 ,-4.998091320389977e-07  ,-3.399927973082636e-05  ,      0.0 ,-3.449908757120376e-05  ,1.9488243969952978e-05 ,0.8059902091156949   ,0.5429413278988637      ,-0.0015057052443205293  ,-1.6358773856257031e-06 ,0.00136854882608687    ,-82.06907230555834     ,0.0 ,-85.7282639933109     ,-85.7282639933109       ,        0.0 ,        0.0 , 0.0
 0.0 ,0.0 ,           0.0 ,            0.0 ,            0.0 ,            0.0 ,              0.0 ,                   0.0 ,1118.0 ,27.33863 ,-35.85208 ,           0.0 ,           0.0 ,       0.0 ,-171.1143      ,-18.74064   ,0.002958592      ,-0.0007061389    ,                 0.0 ,             0.0 ,             0.0 ,                 0.0 ,                 0.0 ,        0.0 ,1.6868316371206704     ,            0.0 ,            0.0 ,            0.0 ,              0.0 ,                   0.0 ,  0.0 ,0.0 ,1017.1395635642609   ,1.0                ,0.0 ,-234.33214102047393 ,-469.88977444867237 ,-3.6038585102946827     ,-234.6075020017709  ,          0.0 ,          0.0 ,-234.2767289918493  ,-469.9451629483451  ,-234.6075020017709  ,-938.8294174709172  ,135.9678797193554    ,312.9431469999564   ,235.50322135547435   ,-404.75739880019785   ,-640.3150838436591  ,-3.6038585102946827     ,-405.03281006992415 ,          0.0 ,          0.0 ,-404.702038386836    ,-640.370444257021   ,-405.03281006992415 ,-1450.1053731653296 ,135.9678797193554    ,483.3684563949431    ,235.50322135547435   ,-1.9478218487096378e-07 ,-1.8677696483742507e-05 ,-2.9072605761433817e-06 ,      0.0 ,      0.0 ,      0.0 ,-7.074128265584747e-08  ,-1.8801739679738946e-05 ,      0.0 ,-1.887248010025309e-05  ,1.0834839073886852e-05 ,0.9161331214615716   ,0.23179170912600228     ,-0.0009673488012347818  ,-7.071598262061285e-07  ,0.0035319640312895433  ,-133.3659630219019     ,0.0 ,-37.058758070229736   ,-37.058758070229736     ,        0.0 ,        0.0 , 0.0
 0.0 ,0.0 ,           0.0 ,            0.0 ,            0.0 ,            0.0 ,              0.0 ,                   0.0 ,1119.0 ,29.3683  ,-35.92851 ,           0.0 ,           0.0 ,       0.0 ,-171.9499      ,-18.73351   ,0.0005034078     ,0.0001086527     ,                 0.0 ,             0.0 ,             0.0 ,                 0.0 ,                 0.0 ,        0.0 ,1.4686490282555        ,            0.0 ,            0.0 ,            0.0 ,              0.0 ,                   0.0 ,  0.0 ,0.0 ,1018.7949512361836   ,1.0                ,0.0 ,-234.0944531511604  ,-469.7563843241375  ,-3.305965512086604      ,-234.46538749034772 ,          0.0 ,          0.0 ,-234.0475860056917  ,-469.8032255876496  ,-234.46538749034772 ,-938.3162249656457  ,135.9931840659154    ,312.7720836158675   ,235.54706475487572   ,-405.5735346884434    ,-641.2354651425394  ,-3.305965512086604      ,-405.9444452357387  ,          0.0 ,          0.0 ,-405.5266927060503   ,-641.2823071249325  ,-405.9444452357387  ,-1452.7536142857543 ,135.9931840659154    ,484.2511644342694    ,235.54706475487572   ,-2.094481990917636e-07  ,-1.6792528093576624e-05 ,-3.4858913399294467e-06 ,      0.0 ,      0.0 ,      0.0 ,-2.823804286455148e-08  ,-1.697373980167631e-05  ,      0.0 ,-1.7001977026992905e-05 ,9.791649518269288e-06  ,0.9082719901583096   ,0.25499948912798104     ,-0.0010344794827330925  ,-0.00012093227804389204 ,0.003836729605779612   ,-124.33708748595237    ,0.0 ,-47.141163015725695   ,-47.141163015725695     ,        0.0 ,        0.0 , 0.0
 0.0 ,0.0 ,           0.0 ,            0.0 ,            0.0 ,            0.0 ,              0.0 ,                   0.0 ,1120.0 ,31.3766  ,-35.932   ,           0.0 ,           0.0 ,       0.0 ,-172.0495      ,-18.72705   ,-0.0003209115    ,-0.0001396765    ,                 0.0 ,             0.0 ,             0.0 ,                 0.0 ,                 0.0 ,        0.0 ,1.9826539910207224     ,            0.0 ,            0.0 ,            0.0 ,              0.0 ,                   0.0 ,  0.0 ,0.0 ,1020.4767325633538   ,1.0                ,0.0 ,-233.63411511406713 ,-469.5505719185636  ,-2.86840427442386       ,-234.1127844958444  ,          0.0 ,          0.0 ,-233.59914854087785 ,-469.5854881143059  ,-234.1127844958444  ,-937.2974715284752  ,136.09874845275215   ,312.4324908110815   ,235.729946974771     ,-404.7130592434288    ,-640.6294656704783  ,-2.86840427442386       ,-405.1917286252061  ,          0.0 ,          0.0 ,-404.6780926702395   ,-640.6644323186052  ,-405.1917286252061  ,-1450.5342021819592 ,136.09874845275215   ,483.51138456299617   ,235.729946974771     ,1.0619467627231925e-08  ,-2.2710425463731928e-05 ,-2.2673496753331806e-06 ,      0.0 ,      0.0 ,      0.0 ,6.705399076937064e-08   ,-2.2766858350603754e-05 ,      0.0 ,-2.269980381728356e-05  ,1.316385330798619e-05  ,0.8214577436362611   ,0.5025359631833637      ,-0.0016517018957607954  ,-0.0002353863539220729  ,0.0012385078743563434  ,-79.3202491068804      ,0.0 ,-91.75702849069243    ,-91.75702849069243      ,        0.0 ,        0.0 , 0.0
 0.0 ,0.0 ,           0.0 ,            0.0 ,            0.0 ,            0.0 ,              0.0 ,                   0.0 ,1121.0 ,33.37315 ,-35.9038  ,           0.0 ,           0.0 ,       0.0 ,-171.8268      ,-18.72112   ,-0.0009805405    ,-0.000131376     ,                 0.0 ,             0.0 ,             0.0 ,                 0.0 ,                 0.0 ,        0.0 ,2.511403104652513      ,            0.0 ,            0.0 ,            0.0 ,              0.0 ,                   0.0 ,  0.0 ,0.0 ,1022.4386588821649   ,1.0                ,0.0 ,-233.63417036681975 ,-469.8422760339199  ,-2.6168704041828454     ,-233.94147827588367 ,          0.0 ,          0.0 ,-233.6045534275433  ,-469.87189350728687 ,-233.94147827588367 ,-937.417925210714   ,136.311895003071     ,312.4726416615325   ,236.09910440696797   ,-403.45178904059753   ,-639.6598952417881  ,-2.6168704041828454     ,-403.75909694966145 ,          0.0 ,          0.0 ,-403.42217210132105  ,-639.6895618009612  ,-403.75909694966145 ,-1446.8707302359956 ,136.311895003071     ,482.2902603353103    ,236.09910440696797   ,9.56296392492872e-08    ,-4.571939361343826e-05  ,-3.811589707214118e-06  ,      0.0 ,      0.0 ,      0.0 ,1.7793255900571056e-07  ,-4.580169408153973e-05  ,      0.0 ,-4.562376260207083e-05  ,2.6495146800308193e-05 ,0.9981111738615804   ,0.003016332935108149    ,-1.538853441966451e-05  ,-2.174711984669994e-08  ,0.002324573929661322   ,-168.966102669974      ,0.0 ,-0.851502679403849    ,-0.851502679403849      ,        0.0 ,        0.0 , 0.0
 0.0 ,0.0 ,           0.0 ,            0.0 ,            0.0 ,            0.0 ,              0.0 ,                   0.0 ,1122.0 ,35.36146 ,-35.88453 ,           0.0 ,           0.0 ,       0.0 ,-171.689       ,-18.71563   ,-0.002061157     ,0.0001579461     ,                 0.0 ,             0.0 ,             0.0 ,                 0.0 ,                 0.0 ,        0.0 ,2.071483429307742      ,            0.0 ,            0.0 ,            0.0 ,              0.0 ,                   0.0 ,  0.0 ,0.0 ,1025.687668922803    ,1.0                ,0.0 ,-233.1758293506604  ,-469.0916944784668  ,-2.127364801735494      ,-233.51000361644824 ,          0.0 ,          0.0 ,-233.1557300709278  ,-469.1118211632385  ,-233.51000361644824 ,-935.7775548506146  ,136.12720887924883   ,311.92586750411664  ,235.77923873938374   ,-402.9652287543595    ,-638.8810963539795  ,-2.127364801735494      ,-403.29940302014734 ,          0.0 ,          0.0 ,-402.9451045414013   ,-638.9012682286728  ,-403.29940302014734 ,-1445.145500723447  ,136.12720887924883   ,481.7152669078157    ,235.77923873938374   ,1.046108328257326e-07   ,-4.482261607220463e-05  ,-3.807793879843299e-06  ,      0.0 ,      0.0 ,      0.0 ,1.8920324853955856e-07  ,-4.4907206808304215e-05 ,      0.0 ,-4.471800578873291e-05  ,2.5981994343581785e-05 ,0.8148530485533576   ,0.5223450286734015      ,-0.0015997280116788427  ,-2.0155468031721307e-06 ,0.0010376183783838522  ,-85.77641699351726     ,0.0 ,-84.01138285022648    ,-84.01138285022648      ,        0.0 ,        0.0 , 0.0
 0.0 ,0.0 ,           0.0 ,            0.0 ,            0.0 ,            0.0 ,              0.0 ,                   0.0 ,1123.0 ,37.33548 ,-35.92747 ,           0.0 ,           0.0 ,       0.0 ,-172.1696      ,-18.71052   ,-0.002059459     ,0.0001577034     ,                 0.0 ,             0.0 ,             0.0 ,                 0.0 ,                 0.0 ,        0.0 ,1.6777641433628454     ,            0.0 ,            0.0 ,            0.0 ,              0.0 ,                   0.0 ,  0.0 ,0.0 ,1026.1281412349665   ,1.0                ,0.0 ,-232.8976620341163  ,-468.5464211591918  ,-1.5152626290581421     ,-233.2497454682744  ,          0.0 ,          0.0 ,-232.88747202781127 ,-468.5566111654968  ,-233.2497454682744  ,-934.6938286615825  ,135.95921035689906   ,311.56461563601414  ,235.4882917695712    ,-403.37596987798497   ,-639.024675203772   ,-1.5152626290581421     ,-403.7280672892689  ,          0.0 ,          0.0 ,-403.3657260723914   ,-639.0349512329511  ,-403.7280672892689  ,-1446.1285263481518 ,135.95921035689906   ,482.04293745700863   ,235.4882917695712    ,8.341149754970001e-09   ,-4.304070606374956e-05  ,-4.101651253356313e-06  ,      0.0 ,      0.0 ,      0.0 ,1.1190520732070047e-07  ,-4.314426806503109e-05  ,      0.0 ,-4.303236695752552e-05  ,2.4941737801567403e-05 ,0.7108029496976151   ,0.8171381673441078      ,-0.0027938985699248907  ,-2.472091279736671e-06  ,0.0003972340070945689  ,-32.835816145238354    ,0.0 ,-137.63971184067375   ,-137.63971184067375     ,        0.0 ,        0.0 , 0.0
 0.0 ,0.0 ,           0.0 ,            0.0 ,            0.0 ,            0.0 ,              0.0 ,                   0.0 ,1124.0 ,39.26718 ,-36.13968 ,           0.0 ,           0.0 ,       0.0 ,-174.3389      ,-18.70579   ,-0.002070256     ,-0.0001764381    ,                 0.0 ,             0.0 ,             0.0 ,                 0.0 ,                 0.0 ,        0.0 ,0.5171345273410691     ,            0.0 ,            0.0 ,            0.0 ,              0.0 ,                   0.0 ,  0.0 ,0.0 ,1021.7296707115822   ,1.0                ,0.0 ,-232.80828634309526 ,-468.5082128022032  ,-1.1343445283286662     ,-233.42800958290573 ,          0.0 ,          0.0 ,-232.80268912757782 ,-468.5137605755653  ,-233.42800958290573 ,-934.7444592860488  ,135.90774903799684   ,311.5814781816706   ,235.39915739524923   ,-406.7567842524474    ,-642.456684854829   ,-1.1343445283286662     ,-407.3765569344132  ,          0.0 ,          0.0 ,-406.751210622359    ,-642.4622584849174  ,-407.3765569344132  ,-1456.589999029355  ,135.90774903799684   ,485.53002553317805   ,235.39915739524923   ,-1.1510491493480895e-08 ,-1.0757073029252419e-05 ,-1.209625235827276e-06  ,      0.0 ,      0.0 ,      0.0 ,2.242414510059428e-08   ,-1.0791007396936539e-05 ,      0.0 ,-1.076858444383103e-05  ,6.236676013477571e-06  ,0.8212007646559059   ,0.5044188988631255      ,-0.0016902451759026262  ,-1.7061795174370358e-05 ,0.001165233930549582   ,-81.98592817197418     ,0.0 ,-91.9610437101651     ,-91.9610437101651       ,        0.0 ,        0.0 , 0.0
 0.0 ,0.0 ,           0.0 ,            0.0 ,            0.0 ,            0.0 ,              0.0 ,                   0.0 ,1125.0 ,41.18715 ,-36.27884 ,           0.0 ,           0.0 ,       0.0 ,-175.7758      ,-18.70126   ,-0.00166737      ,-0.0005029217    ,                 0.0 ,             0.0 ,             0.0 ,                 0.0 ,                 0.0 ,        0.0 ,1.9949672814423292     ,            0.0 ,            0.0 ,            0.0 ,              0.0 ,                   0.0 ,  0.0 ,0.0 ,1024.4292857139726   ,1.0                ,0.0 ,-233.46596972727068 ,-469.84800798972674 ,-0.92721429023039       ,-233.93211246515935 ,          0.0 ,          0.0 ,-233.46211512179985 ,-469.8518623435616  ,-233.93211246515935 ,-937.2460405098168  ,136.34436572740543   ,312.4153305814776   ,236.1553942905018    ,-408.2628681849931    ,-644.6449064474492  ,-0.92721429023039       ,-408.7290120814736  ,          0.0 ,          0.0 ,-408.25901383115826  ,-644.64871138058    ,-408.7290120814736  ,-1461.6369798619523 ,136.34436572740543   ,487.21227871154      ,236.1553942905018    ,-7.13536360208463e-08   ,-2.315135499224406e-05  ,-1.969649236237738e-06  ,      0.0 ,      0.0 ,      0.0 ,-2.909851676953983e-08  ,-2.3193612557765633e-05 ,      0.0 ,-2.3222708423326442e-05 ,1.33824476779838e-05   ,0.9967921348606553   ,0.006675209821746008    ,-0.00015029617159588045 ,-7.288249121153237e-09  ,0.0024000640819694715  ,-172.96513315890675    ,0.0 ,-1.8317816738366033   ,-1.8317816738366033     ,        0.0 ,        0.0 , 0.0
 0.0 ,0.0 ,           0.0 ,            0.0 ,            0.0 ,            0.0 ,              0.0 ,                   0.0 ,1126.0 ,43.10341 ,-36.33233 ,           0.0 ,           0.0 ,       0.0 ,-176.3546      ,-18.69688   ,-0.004610974     ,4.399239e-05     ,                 0.0 ,             0.0 ,             0.0 ,                 0.0 ,                 0.0 ,        0.0 ,2.0124818367772987     ,            0.0 ,            0.0 ,            0.0 ,              0.0 ,                   0.0 ,  0.0 ,0.0 ,1026.6362664563974   ,1.0                ,0.0 ,-233.92615317669393 ,-470.81646025213075 ,-0.22623690780257505    ,-234.3658679800792  ,          0.0 ,          0.0 ,-233.92593682224756 ,-470.81672709465073 ,-234.3658679800792  ,-939.108531096858   ,136.64229045711176   ,313.03619353626146  ,236.6713712609822    ,-409.29990716997565   ,-646.190115045532   ,-0.22623690780257505    ,-409.73957166131504 ,          0.0 ,          0.0 ,-409.2995908155293   ,-646.1904305998587  ,-409.73957166131504 ,-1465.2295472133192 ,136.64229045711176   ,488.40984832966274   ,236.6713712609822    ,8.070993520077807e-08   ,-2.3431539858876153e-05 ,-1.897076704589918e-06  ,      0.0 ,      0.0 ,      0.0 ,1.1891533384610004e-07  ,-2.346974292143506e-05  ,      0.0 ,-2.3350829623403343e-05 ,1.3584724370801667e-05 ,0.6497585755172361   ,0.9919789005366165      ,-0.002359745062936369   ,-9.201169858346756e-05  ,1.9904029838548537e-05 ,-1.464382211366741     ,0.0 ,-173.9069092486111    ,-173.9069092486111      ,        0.0 ,        0.0 , 0.0
 0.0 ,0.0 ,           0.0 ,            0.0 ,            0.0 ,            0.0 ,              0.0 ,                   0.0 ,1127.0 ,45.01911 ,-36.33394 ,           0.0 ,           0.0 ,       0.0 ,-176.4133      ,-18.69261   ,-0.004845528     ,2.535304e-06     ,                 0.0 ,             0.0 ,             0.0 ,                 0.0 ,                 0.0 ,        0.0 ,3.4989420131554403     ,            0.0 ,            0.0 ,            0.0 ,              0.0 ,                   0.0 ,  0.0 ,0.0 ,1028.1182179113302   ,1.0                ,0.0 ,-234.32285050442334 ,-471.0742681231102  ,0.005339832427252965    ,-234.44001789357714 ,          0.0 ,          0.0 ,-234.32275074368223 ,-471.0743678838513  ,-234.44001789357714 ,-939.8371365211107  ,136.65471982607903   ,313.2790457370753   ,236.6929835652216    ,-409.5049504982631    ,-646.2564676384322  ,0.005339832427252965    ,-409.62221740889913 ,          0.0 ,          0.0 ,-409.5049006040618   ,-646.2565175326336  ,-409.62221740889913 ,-1465.383436263371  ,136.65471982607903   ,488.4611951465986    ,236.6929835652216    ,1.2144453505125623e-07  ,-3.9343683075248334e-05 ,-5.410211719300821e-06  ,      0.0 ,      0.0 ,      0.0 ,3.5604615969571825e-07  ,-3.9578287833802284e-05 ,      0.0 ,-3.922224486522774e-05  ,2.2954008882147328e-05 ,0.8212675531126662   ,0.5022176311601388      ,-0.002873656040412593   ,-5.336332115394946e-06  ,0.001232946123686935   ,-91.1398177482757      ,0.0 ,-84.03946029360999    ,-84.03946029360999      ,        0.0 ,        0.0 , 0.0
 0.0 ,0.0 ,           0.0 ,            0.0 ,            0.0 ,            0.0 ,              0.0 ,                   0.0 ,1128.0 ,46.93831 ,-36.3087  ,           0.0 ,           0.0 ,       0.0 ,-176.2026      ,-18.68844   ,-0.003825167     ,3.717736e-05     ,                 0.0 ,             0.0 ,             0.0 ,                 0.0 ,                 0.0 ,        0.0 ,3.5012520855703855     ,            0.0 ,            0.0 ,            0.0 ,              0.0 ,                   0.0 ,  0.0 ,0.0 ,1029.3063000405384   ,1.0                ,0.0 ,-234.08379935541296 ,-470.4459505777228  ,-0.02357473566647946    ,-234.1527372986592  ,          0.0 ,          0.0 ,-234.08379935541296 ,-470.4459506491474  ,-234.1527372986592  ,-938.6825374998527  ,136.44387404714433   ,312.8941958750204   ,236.32770715237012   ,-409.1172964605289    ,-645.479497414781   ,-0.02357473566647946    ,-409.1862841357173  ,          0.0 ,          0.0 ,-409.1172964605289   ,-645.4794974862056  ,-409.1862841357173  ,-1463.7833774749117 ,136.44387404714433   ,487.9276427835032    ,236.32770715237012   ,3.0413410335314785e-07  ,-3.9248229947244135e-05 ,-5.881818037571476e-06  ,      0.0 ,      0.0 ,      0.0 ,5.992393440689337e-07   ,-3.954333913276185e-05  ,      0.0 ,-3.8944098677365655e-05 ,2.3006186679241533e-05 ,1.0                  ,-0.0040883092794564615  ,-7.05523756159943e-06   ,0.0                     ,0.00408831528410337    ,-175.03344690848277    ,0.0 ,0.0                   ,0.0                     ,        0.0 ,        0.0 , 0.0
 0.0 ,0.0 ,           0.0 ,            0.0 ,            0.0 ,            0.0 ,              0.0 ,                   0.0 ,1129.0 ,48.86709 ,-36.27109 ,           0.0 ,           0.0 ,       0.0 ,-175.8677      ,-18.68432   ,-0.003119004     ,9.908216e-06     ,                 0.0 ,             0.0 ,             0.0 ,                 0.0 ,                 0.0 ,        0.0 ,1.5001635889102278     ,            0.0 ,            0.0 ,            0.0 ,              0.0 ,                   0.0 ,  0.0 ,0.0 ,1030.3535603856076   ,1.0                ,0.0 ,-233.9523533549867  ,-470.37783036995637 ,0.012113350150017348    ,-234.0019312233675  ,          0.0 ,          0.0 ,-233.9523533549867  ,-470.37788038631527 ,-234.0019312233675  ,-938.3321649646695  ,136.48602472798808   ,312.77735508529884  ,236.4007132345723    ,-408.0860137348902    ,-644.5114904586327  ,0.012113350150017348    ,-408.135591603271   ,          0.0 ,          0.0 ,-408.08601344366303  ,-644.5115407662187  ,-408.135591603271   ,-1460.7331972856475 ,136.48602472798808   ,486.9110154652024    ,236.4007132345723    ,6.17483305715336e-07    ,-4.5263203393462666e-05 ,-2.9152513226658413e-06 ,      0.0 ,      0.0 ,      0.0 ,6.822900742787121e-07   ,-4.532800729021934e-05  ,      0.0 ,-4.464571628650405e-05  ,2.636933623155699e-05  ,0.8244411738841855   ,0.49508559354781234     ,-0.0010812000991489456  ,-1.3841454177787406e-06 ,0.0018385488197508659  ,-83.2219011866478      ,0.0 ,-90.9106811372062     ,-90.9106811372062       ,        0.0 ,        0.0 , 0.0
 0.0 ,0.0 ,           0.0 ,            0.0 ,            0.0 ,            0.0 ,              0.0 ,                   0.0 ,1130.0 ,50.81035 ,-36.22675 ,           0.0 ,           0.0 ,       0.0 ,-175.465       ,-18.68025   ,-0.00167731      ,8.895982e-05     ,                 0.0 ,             0.0 ,             0.0 ,                 0.0 ,                 0.0 ,        0.0 ,0.5078416129462268     ,            0.0 ,            0.0 ,            0.0 ,              0.0 ,                   0.0 ,  0.0 ,0.0 ,1031.407537437064    ,1.0                ,0.0 ,-233.31814557525493 ,-469.20744550312713 ,0.07262093062857966     ,-233.5359144849498  ,          0.0 ,          0.0 ,-233.3181450814413  ,-469.2074462438476  ,-233.5359144849498  ,-936.0614556067726  ,136.12794225873677   ,312.02048520225753  ,235.78051641721117   ,-407.735532114144     ,-643.6247822454822  ,0.07262093062857966     ,-407.9533010238389  ,          0.0 ,          0.0 ,-407.73548182379636  ,-643.6248327827366  ,-407.9533010238389  ,-1459.3140636985581 ,136.12794225873677   ,486.4378717411466    ,235.78051641721117   ,5.507698551166057e-07   ,-2.4911663561515247e-05 ,-7.821160021795382e-07  ,      0.0 ,      0.0 ,      0.0 ,5.567953492529646e-07   ,-2.4917691025291352e-05 ,      0.0 ,-2.4360893698991436e-05 ,1.4549635188608648e-05 ,0.8233159395272718   ,0.49847891135812195     ,-0.0010357713512344192  ,-2.1033255068485742e-05 ,0.0010866829064769782  ,-82.1437405938035      ,0.0 ,-92.27261231190413    ,-92.27261231190413      ,        0.0 ,        0.0 , 0.0
 0.0 ,0.0 ,           0.0 ,            0.0 ,            0.0 ,            0.0 ,              0.0 ,                   0.0 ,1131.0 ,52.77436 ,-36.173   ,           0.0 ,           0.0 ,       0.0 ,-174.968       ,-18.67619   ,-6.950895e-05    ,0.0003956002     ,                 0.0 ,             0.0 ,             0.0 ,                 0.0 ,                 0.0 ,        0.0 ,3.063913032855174      ,            0.0 ,            0.0 ,            0.0 ,              0.0 ,                   0.0 ,  0.0 ,0.0 ,1039.8614596350849   ,1.0                ,0.0 ,-233.2776661709878  ,-468.8984530413317  ,0.14661515462127556     ,-233.37493000773088 ,          0.0 ,          0.0 ,-233.27756434235528 ,-468.898580100771   ,-233.37493000773088 ,-935.5510258178763  ,136.0077922678805    ,311.85034193929204  ,235.57240632790206   ,-406.7759919594402    ,-642.396778829784   ,0.14661515462127556     ,-406.87330716320236 ,          0.0 ,          0.0 ,-406.7758901308077   ,-642.3969058892234  ,-406.87330716320236 ,-1456.046223833548  ,136.0077922678805    ,485.3486677277445    ,235.57240632790206   ,1.2576461000885293e-06  ,-3.7516409220244575e-05 ,-1.7596911712894152e-06 ,      0.0 ,      0.0 ,      0.0 ,1.2781921357374608e-06  ,-3.753694938942956e-05  ,      0.0 ,-3.625876030855107e-05  ,2.2050260171304724e-05 ,0.9172322668650668   ,0.23212833286152632     ,-0.0004899499726551004  ,-9.853038456381416e-06  ,0.0018934190713272609  ,-130.27269195065068    ,0.0 ,-43.22514963184053    ,-43.22514963184053      ,        0.0 ,        0.0 , 0.0
 0.0 ,0.0 ,           0.0 ,            0.0 ,            0.0 ,            0.0 ,              0.0 ,                   0.0 ,1132.0 ,54.76676 ,-36.10134 ,           0.0 ,           0.0 ,       0.0 ,-174.2921      ,-18.67212   ,-0.002135363     ,-0.0002533382    ,                 0.0 ,             0.0 ,             0.0 ,                 0.0 ,                 0.0 ,        0.0 ,2.103237654686068      ,            0.0 ,            0.0 ,            0.0 ,              0.0 ,                   0.0 ,  0.0 ,0.0 ,1042.7486579830666   ,1.0                ,0.0 ,-232.8718906591946  ,-468.24473228723616 ,0.4917181231841572      ,-233.09854734320479 ,          0.0 ,          0.0 ,-232.8697625721589  ,-468.24688833109315 ,-233.09854734320479 ,-934.2151982464568  ,135.82913665783596   ,311.4050747320356   ,235.2629520461357    ,-405.7392307593649    ,-641.1120723874064  ,0.4917181231841572      ,-405.96593353690395 ,          0.0 ,          0.0 ,-405.73707471550796  ,-641.1142004744422  ,-405.96593353690395 ,-1452.8171671513198 ,135.82913665783596   ,484.27238687538465   ,235.2629520461357    ,1.4856589146212312e-06  ,-3.5616031562480486e-05 ,-8.719998874624533e-07  ,      0.0 ,      0.0 ,      0.0 ,1.4948049950076344e-06  ,-3.562517337833387e-05  ,      0.0 ,-3.41303700256286e-05   ,2.1013469837914292e-05 ,1.0                  ,-0.0022648172009254453  ,-1.3904692072056136e-05 ,0.0                     ,0.0022648970456410683  ,-172.86734010017028    ,0.0 ,0.0                   ,0.0                     ,        0.0 ,        0.0 , 0.0
 0.0 ,0.0 ,           0.0 ,            0.0 ,            0.0 ,            0.0 ,              0.0 ,                   0.0 ,1133.0 ,56.79179 ,-36.00519 ,           0.0 ,           0.0 ,       0.0 ,-173.3716      ,-18.66804   ,-0.006957912     ,-0.0005028774    ,                 0.0 ,             0.0 ,             0.0 ,                 0.0 ,                 0.0 ,        0.0 ,0.9881612062354765     ,            0.0 ,            0.0 ,            0.0 ,              0.0 ,                   0.0 ,  0.0 ,0.0 ,1033.4351348915268   ,1.0                ,0.0 ,-232.3946323060798  ,-466.3371009270667  ,0.5699116499784079      ,-232.50912172075274 ,          0.0 ,          0.0 ,-232.39289586725448 ,-466.338887927537   ,-232.50912172075274 ,-931.2409055155442  ,135.03526082256582   ,310.41365165129974  ,233.88795421624798   ,-405.1647608521431    ,-639.1071800953646  ,0.5699116499784079      ,-405.27920088905057 ,          0.0 ,          0.0 ,-405.16292447390737  ,-639.1089659119555  ,-405.27920088905057 ,-1449.5509405920893 ,135.03526082256582   ,483.1836802579526    ,233.88795421624798   ,1.4892368132649675e-06  ,-1.9985772009979506e-05 ,-5.104840362790882e-07  ,      0.0 ,      0.0 ,      0.0 ,1.492276095924714e-06   ,-1.9988813759103954e-05 ,      0.0 ,-1.8496536676229824e-05 ,1.199456094788776e-05  ,1.0                  ,-0.0028244905319562484  ,-2.0709778756272238e-05 ,0.0                     ,0.0028246269290769397  ,-172.77007916829777    ,0.0 ,0.0                   ,0.0                     ,        0.0 ,        0.0 , 0.0
 0.0 ,0.0 ,           0.0 ,            0.0 ,            0.0 ,            0.0 ,              0.0 ,                   0.0 ,1134.0 ,58.83129 ,-35.94183 ,           0.0 ,           0.0 ,       0.0 ,-172.7787      ,-18.66396   ,-0.007960929     ,0.0005845967     ,                 0.0 ,             0.0 ,             0.0 ,                 0.0 ,                 0.0 ,        0.0 ,2.7412462160673767     ,            0.0 ,            0.0 ,            0.0 ,              0.0 ,                   0.0 ,  0.0 ,0.0 ,1036.5161409664925   ,1.0                ,0.0 ,-233.07766381143063 ,-466.67889373328126 ,0.19886960151886676     ,-232.9509734311847  ,          0.0 ,          0.0 ,-233.07526316586893 ,-466.681271125086   ,-232.9509734311847  ,-932.7075309758966  ,134.9084372185507    ,310.902518950425    ,233.66831750597774   ,-404.7487412582068    ,-638.3499431230036  ,0.19886960151886676     ,-404.6220228209071  ,          0.0 ,          0.0 ,-404.74628712015897  ,-638.3523718256191  ,-404.6220228209071  ,-1447.7204611345499 ,134.9084372185507    ,482.5735683401474    ,233.66831750597774   ,1.1305366575028868e-06  ,-3.8596037072146074e-05 ,-1.9670617598968974e-06 ,      0.0 ,      0.0 ,      0.0 ,1.1741157185833206e-06  ,-3.8639618190058396e-05 ,      0.0 ,-3.7465501866700495e-05 ,2.2685997273996508e-05 ,0.8258624120373681   ,0.4850195978164913      ,-0.0019483181617655344  ,-4.722426601245643e-06  ,0.0018723006964355487  ,-82.9280764934212      ,0.0 ,-88.7410291016571     ,-88.7410291016571       ,        0.0 ,        0.0 , 0.0
 0.0 ,0.0 ,           0.0 ,            0.0 ,            0.0 ,            0.0 ,              0.0 ,                   0.0 ,1135.0 ,60.86213 ,-35.96778 ,           0.0 ,           0.0 ,       0.0 ,-173.0784      ,-18.65993   ,-0.005245889     ,0.0003861292     ,                 0.0 ,             0.0 ,             0.0 ,                 0.0 ,                 0.0 ,        0.0 ,2.985370325016715      ,            0.0 ,            0.0 ,            0.0 ,              0.0 ,                   0.0 ,  0.0 ,0.0 ,1036.847173483782    ,1.0                ,0.0 ,-234.27357107640378 ,-467.95727026729577 ,-0.13473240721062774    ,-233.82735376068848 ,          0.0 ,          0.0 ,-234.27134904573964 ,-467.95949229795997 ,-233.82735376068848 ,-936.058195104388   ,135.04834772955414   ,312.01939017917107  ,233.91063598379705   ,-405.82773248392766   ,-639.5113809433359  ,-0.13473240721062774    ,-405.3814904665709  ,          0.0 ,          0.0 ,-405.8254364831059   ,-639.5136276756414  ,-405.3814904665709  ,-1450.7202519689163 ,135.04834772955414   ,483.57350085521114   ,233.91063598379705   ,-1.5236374404144799e-06 ,-4.222510212372705e-05  ,-1.79921324353864e-06   ,      0.0 ,      0.0 ,      0.0 ,-1.5010636784164218e-06 ,-4.2247676135436855e-05 ,      0.0 ,-4.3748737032957996e-05 ,2.4005958605476534e-05 ,0.8239291527429045   ,0.49083582539078974     ,-0.0012140917879908885  ,-3.813284620782185e-06  ,0.001849345561313629   ,-82.14793684182288     ,0.0 ,-89.40496520903034    ,-89.40496520903034      ,        0.0 ,        0.0 , 0.0
 0.0 ,0.0 ,           0.0 ,            0.0 ,            0.0 ,            0.0 ,              0.0 ,                   0.0 ,1136.0 ,62.87314 ,-36.01829 ,           0.0 ,           0.0 ,       0.0 ,-173.6231      ,-18.65599   ,-0.01359475      ,-0.000993793     ,                 0.0 ,             0.0 ,             0.0 ,                 0.0 ,                 0.0 ,        0.0 ,1.0075969674245209     ,            0.0 ,            0.0 ,            0.0 ,              0.0 ,                   0.0 ,  0.0 ,0.0 ,1036.2275484449772   ,0.9999999999999999 ,0.0 ,-235.61675084936087 ,-468.14934070495667 ,-0.9126031732808845     ,-234.27445975301842 ,          0.0 ,          0.0 ,-235.60791195411815 ,-468.15817960019945 ,-234.27445975301842 ,-938.0405513073359  ,134.64974043922484   ,312.680183593642    ,233.22024677367443   ,-408.66420414590885   ,-641.1967948210377  ,-0.9126031732808845     ,-407.32191304956643 ,          0.0 ,          0.0 ,-408.65541487081776  ,-641.2056337162803  ,-407.32191304956643 ,-1457.1825629826076 ,134.64974043922484   ,485.7275875631615    ,233.22024677367443   ,-1.6231343975962264e-06 ,-1.867286425764171e-05  ,-1.2037299156742581e-06 ,      0.0 ,      0.0 ,      0.0 ,-1.60187237405471e-06   ,-1.8694126270655025e-05 ,      0.0 ,-2.029599616783011e-05  ,1.0361673075844188e-05 ,0.8184359670001978   ,0.5049332527554509      ,-0.000994572973038095   ,-1.5166069318001953e-05 ,0.0017964726219679514  ,-80.01736658547088     ,0.0 ,-93.02909907937462    ,-93.02909907937462      ,        0.0 ,        0.0 , 0.0
 0.0 ,0.0 ,           0.0 ,            0.0 ,            0.0 ,            0.0 ,              0.0 ,                   0.0 ,1137.0 ,64.8602  ,-36.03139 ,           0.0 ,           0.0 ,       0.0 ,-173.7927      ,-18.65212   ,-0.01394022      ,0.001104157      ,                 0.0 ,             0.0 ,             0.0 ,                 0.0 ,                 0.0 ,        0.0 ,2.991762481488532      ,            0.0 ,            0.0 ,            0.0 ,              0.0 ,                   0.0 ,  0.0 ,0.0 ,1037.8546105745643   ,0.9999999999999999 ,0.0 ,-237.22807734803234 ,-468.4823049835229  ,-2.2429863691378507     ,-235.1345784484131  ,          0.0 ,          0.0 ,-237.18326378370702 ,-468.5271185478482  ,-235.1345784484131  ,-940.8449607799683  ,134.16184870738576   ,313.61500354350346  ,232.3751427533919    ,-411.25580861151275   ,-642.5099866467131  ,-2.2429863691378507     ,-409.1622598370194  ,          0.0 ,          0.0 ,-411.21094544689726  ,-642.5548500859124  ,-409.1622598370194  ,-1462.9277055436191 ,134.16184870738576   ,487.6426849564418    ,232.3751427533919    ,-2.5518356340550768e-06 ,-2.336601642920637e-05  ,-6.526844659594478e-06  ,      0.0 ,      0.0 ,      0.0 ,-2.034723478172816e-06  ,-2.388312459655863e-05  ,      0.0 ,-2.5917851066980567e-05 ,1.324374880470434e-05  ,0.9990161236944359   ,-0.0028824914906828195  ,-3.175435364250041e-05  ,-8.282067011577886e-08  ,0.005628393825654001   ,-173.52356397800514    ,0.0 ,-0.5041622183771198   ,-0.5041622183771198     ,        0.0 ,        0.0 , 0.0
 0.0 ,0.0 ,           0.0 ,            0.0 ,            0.0 ,            0.0 ,              0.0 ,                   0.0 ,1138.0 ,66.7986  ,-35.97209 ,           0.0 ,           0.0 ,       0.0 ,-173.237       ,-18.64839   ,0.01958743       ,2.282289e-05     ,                 0.0 ,             0.0 ,             0.0 ,                 0.0 ,                 0.0 ,        0.0 ,1.8305184325718609     ,            0.0 ,            0.0 ,            0.0 ,              0.0 ,                   0.0 ,  0.0 ,0.0 ,1048.7478393565475   ,1.0                ,0.0 ,-239.93306862774014 ,-472.09552724088945 ,-4.598561502392753      ,-236.81926649421115 ,          0.0 ,          0.0 ,-239.83961650594009 ,-472.18897936268945 ,-236.81926649421115 ,-948.8479126277635  ,135.02760090791259   ,316.2826654031509   ,233.87463899926598   ,-412.0735999034358    ,-644.2360585165851  ,-4.598561502392753      ,-408.9597977699068  ,          0.0 ,          0.0 ,-411.98015599079116  ,-644.329510638385   ,-408.9597977699068  ,-1465.2691808670952 ,135.02760090791259   ,488.42316336208034   ,233.87463899926598   ,-2.7366677479593127e-06 ,-3.793156676101864e-05  ,-4.314153816846962e-06  ,      0.0 ,      0.0 ,      0.0 ,-2.4290008551423348e-06 ,-3.8239232506044905e-05 ,      0.0 ,-4.066823545867715e-05  ,2.1410724899583102e-05 ,0.7889507936912658   ,0.5824006057652813      ,-0.0012621776453408445  ,-9.01524985646148e-06   ,0.002340197050712307   ,-76.34162114829194     ,0.0 ,-95.7976574427467     ,-95.7976574427467       ,        0.0 ,        0.0 , 0.0
 0.0 ,0.0 ,           0.0 ,            0.0 ,            0.0 ,            0.0 ,              0.0 ,                   0.0 ,1139.0 ,68.47145 ,-36.45836 ,           0.0 ,           0.0 ,       0.0 ,-178.1314      ,-18.64522   ,0.01924487       ,-0.00177204      ,                 0.0 ,             0.0 ,             0.0 ,                 0.0 ,                 0.0 ,        0.0 ,2.1561620078423953     ,            0.0 ,            0.0 ,            0.0 ,              0.0 ,                   0.0 ,  0.0 ,0.0 ,1030.978182146512    ,0.9999999999999999 ,0.0 ,-243.06432583694084 ,-480.71409343308426 ,-7.492791106980082      ,-240.8724834549049  ,          0.0 ,          0.0 ,-242.80699192328234 ,-480.9713755678127  ,-240.8724834549049  ,-964.6508931378996  ,138.06777917089624   ,321.55031378632316  ,239.14034722847734   ,-420.54872557529114   ,-658.1984413925045  ,-7.492791106980082      ,-418.35688319325527 ,          0.0 ,          0.0 ,-420.2913916616326   ,-658.455775306163   ,-418.35688319325527 ,-1497.1040909681901 ,138.06777917089624   ,499.0347074955032    ,239.14034722847734   ,-2.4991349342778745e-06 ,-3.354872873029447e-05  ,-6.2781697646587726e-06 ,      0.0 ,      0.0 ,      0.0 ,-1.891829859545416e-06  ,-3.415603486437049e-05  ,      0.0 ,-3.60478678699147e-05   ,1.919812980429759e-05  ,0.8478373190024575   ,0.41867936977361847     ,-0.0009217969276465697  ,-6.638946033579482e-06  ,0.0032396782685856808  ,-108.16667745996013    ,0.0 ,-69.31681871438877    ,-69.31681871438877      ,        0.0 ,        0.0 , 0.0
 0.0 ,0.0 ,           0.0 ,            0.0 ,            0.0 ,            0.0 ,              0.0 ,                   0.0 ,1140.0 ,70.18534 ,-36.51818 ,           0.0 ,           0.0 ,       0.0 ,-178.7618      ,-18.642     ,0.02363348       ,0.0008999618     ,                 0.0 ,             0.0 ,             0.0 ,                 0.0 ,                 0.0 ,        0.0 ,2.4683867756204383     ,            0.0 ,            0.0 ,            0.0 ,              0.0 ,                   0.0 ,  0.0 ,0.0 ,1041.631082953215    ,1.0                ,0.0 ,-245.89159541092863 ,-488.1691290093949  ,-9.183661936966894      ,-244.08593044680265 ,          0.0 ,          0.0 ,-245.5365129635777  ,-488.5242099946444  ,-244.08593044680265 ,-978.1466534050247  ,140.7115176523381    ,326.0489004588388   ,243.71949574105565   ,-422.73968812742805   ,-665.017220263793   ,-9.183661936966894      ,-420.93402575821744 ,          0.0 ,          0.0 ,-422.38460568007713  ,-665.3723027111438  ,-420.93402575821744 ,-1508.6912393392693 ,140.7115176523381    ,502.8969452038466    ,243.71949574105565   ,-1.8680365037353717e-06 ,-4.852268580129082e-05  ,-5.2150359512130285e-06 ,      0.0 ,      0.0 ,      0.0 ,-1.6890219313638353e-06 ,-4.8701700344245874e-05 ,      0.0 ,-5.039072078392553e-05  ,2.7658498412797062e-05 ,0.6496910847550329   ,0.9852971009967235      ,-0.002239725612791758   ,-1.722825419121976e-05  ,8.188569462289422e-05  ,-2.7391395318091996    ,0.0 ,-174.10671386895177   ,-174.10671386895177     ,        0.0 ,        0.0 , 0.0
 0.0 ,0.0 ,           0.0 ,            0.0 ,            0.0 ,            0.0 ,              0.0 ,                   0.0 ,1141.0 ,71.90783 ,-36.45376 ,           0.0 ,           0.0 ,       0.0 ,-178.1496      ,-18.6388    ,0.04890139       ,0.000697658      ,                 0.0 ,             0.0 ,             0.0 ,                 0.0 ,                 0.0 ,        0.0 ,3.976998745406102      ,            0.0 ,            0.0 ,            0.0 ,              0.0 ,                   0.0 ,  0.0 ,0.0 ,1039.3281984950122   ,1.0                ,0.0 ,-245.67968869637838 ,-491.79361744498055 ,-11.5209825739975       ,-245.3650623573206  ,          0.0 ,          0.0 ,-245.1386636742542  ,-492.3346401669793  ,-245.3650623573206  ,-982.838366198554   ,142.653373343687     ,327.6128061738866   ,247.08292710523114   ,-422.0583505685088    ,-668.1722316402168  ,-11.5209825739975       ,-421.7436742064706  ,          0.0 ,          0.0 ,-421.51732784651006  ,-668.7132566623409  ,-421.7436742064706  ,-1511.9740726539565 ,142.653373343687     ,503.9913703461425    ,247.08292710523114   ,1.844008055537249e-06   ,-4.956802780367058e-05  ,-7.3152453976915915e-06 ,      0.0 ,      0.0 ,      0.0 ,2.11488065990177e-06    ,-4.9838900056611415e-05 ,      0.0 ,-4.77240178370371e-05   ,2.942191847977395e-05  ,0.6478979673438838   ,1.0                     ,-0.0024864457681540034  ,-2.706238038076861e-05  ,0.0                    ,0.002486610514722369   ,0.0 ,-176.3786141952362    ,-176.3786141952362      ,        0.0 ,        0.0 , 0.0
 0.0 ,0.0 ,           0.0 ,            0.0 ,            0.0 ,            0.0 ,              0.0 ,                   0.0 ,1142.0 ,73.6361  ,-36.31596 ,           0.0 ,           0.0 ,       0.0 ,-176.8033      ,-18.63564   ,0.0521334        ,-0.003129695     ,                 0.0 ,             0.0 ,             0.0 ,                 0.0 ,                 0.0 ,        0.0 ,2.495553875797487      ,            0.0 ,            0.0 ,            0.0 ,              0.0 ,                   0.0 ,  0.0 ,0.0 ,1048.1755674214855   ,1.0                ,0.0 ,-244.4765085985531  ,-490.3556635913936  ,-10.517687838314302     ,-244.91360507309938 ,          0.0 ,          0.0 ,-244.02555505770215 ,-490.8066240731797  ,-244.91360507309938 ,-979.7457317421321  ,142.2236213834887    ,326.5819082670656   ,246.33852686123572   ,-420.99607118070736   ,-666.8752766181603  ,-10.517687838314302     ,-421.43316765525367 ,          0.0 ,          0.0 ,-420.5451631607704   ,-667.3262301590112  ,-421.43316765525367 ,-1509.3043865623683 ,142.2236213834887    ,503.1015212938323    ,246.33852686123572   ,4.125731544257584e-06   ,-3.237076185395268e-05  ,-8.220186687863691e-06  ,      0.0 ,      0.0 ,      0.0 ,4.699335904116764e-06   ,-3.294436269808562e-05  ,      0.0 ,-2.824502904094993e-05  ,2.0527691402587535e-05 ,0.6489266820381947   ,1.0                     ,-0.004447163542112222   ,-5.671631225949732e-05  ,0.0                    ,0.0044475539767605595  ,0.0 ,-176.51956056491747   ,-176.51956056491747     ,        0.0 ,        0.0 , 0.0
 0.0 ,0.0 ,           0.0 ,            0.0 ,            0.0 ,            0.0 ,              0.0 ,                   0.0 ,1143.0 ,75.31401 ,-36.41823 ,           0.0 ,           0.0 ,       0.0 ,-177.8559      ,-18.63264   ,0.06487804       ,0.001812994      ,                 0.0 ,             0.0 ,             0.0 ,                 0.0 ,                 0.0 ,        0.0 ,3.6804071261109814     ,            0.0 ,            0.0 ,            0.0 ,              0.0 ,                   0.0 ,  0.0 ,0.0 ,1033.3948642649073   ,1.0                ,0.0 ,-243.80931098342134 ,-492.0409128135607  ,-7.7030001625468145     ,-245.48626087821464 ,          0.0 ,          0.0 ,-243.54497997881955 ,-492.3053190162189  ,-245.48626087821464 ,-981.3364846751965  ,143.06640420625186   ,327.11214796453646  ,247.7982657520281    ,-420.0003736915493    ,-668.2319915013323  ,-7.7030001625468145     ,-421.6773235863426  ,          0.0 ,          0.0 ,-419.7360426869475   ,-668.4963817243469  ,-421.6773235863426  ,-1509.909703308113  ,143.06640420625186   ,503.3032266523082    ,247.7982657520281    ,3.1140763675331817e-06  ,-4.859651493062193e-05  ,-5.67507642927356e-06   ,      0.0 ,      0.0 ,      0.0 ,3.27596224422265e-06    ,-4.8758395438574893e-05 ,      0.0 ,-4.548243777202882e-05  ,2.9146277306895364e-05 ,0.86003442788917     ,0.40640165023477853     ,-0.0011762326537235602  ,-2.9368887428327513e-05 ,0.0014143311160828916  ,-109.28351980043614    ,0.0 ,-66.9063837690246     ,-66.9063837690246       ,        0.0 ,        0.0 , 0.0
 0.0 ,0.0 ,           0.0 ,            0.0 ,            0.0 ,            0.0 ,              0.0 ,                   0.0 ,1144.0 ,76.96972 ,-36.03258 ,           0.0 ,           0.0 ,       0.0 ,-174.0287      ,-18.62971   ,0.04502285       ,0.004529797      ,                 0.0 ,             0.0 ,             0.0 ,                 0.0 ,                 0.0 ,        0.0 ,4.0                    ,            0.0 ,            0.0 ,            0.0 ,              0.0 ,                   0.0 ,  0.0 ,0.0 ,1046.4939911948263   ,1.0                ,0.0 ,-241.2546179026882  ,-489.3614017978989  ,-4.375538836136711      ,-244.1866001535282  ,          0.0 ,          0.0 ,-241.14741819394212 ,-489.46862689168944 ,-244.1866001535282  ,-974.8026198541153  ,142.5007656125091    ,324.9341972858108   ,246.81857188688542   ,-413.4885254561288    ,-661.595286042203   ,-4.375538836136711      ,-416.4205077069687  ,          0.0 ,          0.0 ,-413.3813257473827   ,-661.7025111359936  ,-416.4205077069687  ,-1491.5041435188841 ,142.5007656125091    ,497.1681048392513    ,246.81857188688542   ,3.2766283276173367e-06  ,-5.108629765782102e-05  ,-4.512185548225381e-06  ,      0.0 ,      0.0 ,      0.0 ,3.375830192356042e-06   ,-5.118549713879749e-05  ,      0.0 ,-4.7809667112514084e-05 ,3.057624617206715e-05  ,0.7450434231392203   ,0.7455433235546376      ,-0.0017694974931367884  ,-5.3445382995324665e-05 ,0.0006062786315596292  ,-46.84509279926764     ,0.0 ,-125.38705193087797   ,-125.38705193087797     ,        0.0 ,        0.0 , 0.0
 0.0 ,0.0 ,           0.0 ,            0.0 ,            0.0 ,            0.0 ,              0.0 ,                   0.0 ,1145.0 ,78.96699 ,-35.98137 ,           0.0 ,           0.0 ,       0.0 ,-173.5504      ,-18.62633   ,0.01477897       ,0.001950866      ,                 0.0 ,             0.0 ,             0.0 ,                 0.0 ,                 0.0 ,        0.0 ,2.0625044052408494     ,            0.0 ,            0.0 ,            0.0 ,              0.0 ,                   0.0 ,  0.0 ,0.0 ,1047.0826118969264   ,1.0                ,0.0 ,-238.79696733200848 ,-484.38262002443264 ,-1.6760282391641779     ,-242.20232934995207 ,          0.0 ,          0.0 ,-238.78521212996768 ,-484.3943752264734  ,-242.20232934995207 ,-965.3819167063931  ,140.82758194717024   ,321.79397159880466  ,243.92047851119594   ,-411.4267237163625    ,-657.0123758011661  ,-1.6760282391641779     ,-414.83208573430613 ,          0.0 ,          0.0 ,-411.4149685143217   ,-657.024082565817   ,-414.83208573430613 ,-1483.2712224035847 ,140.82758194717024   ,494.42372798315876   ,243.92047851119594   ,1.1079662729085757e-06  ,-2.5378976750007017e-05 ,-1.7202203297828016e-06 ,      0.0 ,      0.0 ,      0.0 ,1.1359017562536955e-06  ,-2.5406914119624563e-05 ,      0.0 ,-2.427100843977003e-05  ,1.5007740500761433e-05 ,0.6553047791305983   ,1.0                     ,-0.0020021824998463352  ,-0.00014327499043958986 ,0.0                    ,0.0020107482144182827  ,0.0 ,-172.62975638435404   ,-172.62975638435404     ,        0.0 ,        0.0 , 0.0
 0.0 ,0.0 ,           0.0 ,            0.0 ,            0.0 ,            0.0 ,              0.0 ,                   0.0 ,1146.0 ,81.04545 ,-36.06854 ,           0.0 ,           0.0 ,       0.0 ,-174.4552      ,-18.62302   ,-0.007950234     ,0.001306551      ,                 0.0 ,             0.0 ,             0.0 ,                 0.0 ,                 0.0 ,        0.0 ,0.9595384061635838     ,            0.0 ,            0.0 ,            0.0 ,              0.0 ,                   0.0 ,  0.0 ,0.0 ,1049.1096673500688   ,1.0                ,0.0 ,-238.90846718141484 ,-484.7788967810002  ,2.005154368878349       ,-242.52837812810264 ,          0.0 ,          0.0 ,-238.8818729252115  ,-484.8054910372035  ,-242.52837812810264 ,-966.2157420905177  ,140.94408082067082   ,322.071896689146    ,244.1223484327224    ,-412.981753579991     ,-658.8521870547414  ,2.005154368878349       ,-416.60166452667875 ,          0.0 ,          0.0 ,-412.955207300708    ,-658.8787774357796  ,-416.60166452667875 ,-1488.4360012862462 ,140.94408082067082   ,496.14523123563686   ,244.1223484327224    ,1.1926899267084299e-06  ,-1.8449471929897968e-05 ,-4.290706480383703e-08  ,      0.0 ,      0.0 ,      0.0 ,1.1927134353993809e-06  ,-1.8449495918358122e-05 ,      0.0 ,-1.7256780084112726e-05 ,1.1012286449097293e-05 ,0.8237339456268734   ,0.5177648252665699      ,-0.0017756329081761587  ,-9.877945731563665e-05  ,0.0007596503531119827  ,-88.58395835018062     ,0.0 ,-85.48762340223405    ,-85.48762340223405      ,        0.0 ,        0.0 , 0.0
 0.0 ,0.0 ,           0.0 ,            0.0 ,            0.0 ,            0.0 ,              0.0 ,                   0.0 ,1147.0 ,83.04736 ,-36.27841 ,           0.0 ,           0.0 ,       0.0 ,-176.5833      ,-18.62008   ,-0.04984385      ,0.001166775      ,                 0.0 ,             0.0 ,             0.0 ,                 0.0 ,                 0.0 ,        0.0 ,2.033516988130175      ,            0.0 ,            0.0 ,            0.0 ,              0.0 ,                   0.0 ,  0.0 ,0.0 ,1051.569905285431    ,1.0                ,0.0 ,-241.00220331435543 ,-486.5196550032795  ,6.757371573433574       ,-243.40337851086963 ,          0.0 ,          0.0 ,-240.7655852331284  ,-486.7563702320154  ,-243.40337851086963 ,-970.9252870781083  ,141.26815840552715   ,323.64179474187245  ,244.68364313322243   ,-417.0927461997016    ,-662.6101978886257  ,6.757371573433574       ,-419.4939213962158  ,          0.0 ,          0.0 ,-416.85613097096575  ,-662.8469131173617  ,-419.4939213962158  ,-1499.1971147357315 ,141.26815840552715   ,499.7322873776148    ,244.68364313322243   ,2.230121633481966e-06   ,-3.3205757703281104e-05 ,7.117705368754535e-07   ,      0.0 ,      0.0 ,      0.0 ,2.2681666204674366e-06  ,-3.3243805599699756e-05 ,      0.0 ,-3.0975639473171756e-05 ,1.9899079045365465e-05 ,0.8261007805249024   ,0.4949284711646753      ,-0.0012246892033139385  ,-4.0131649153939654e-05 ,0.002582961792568829   ,-85.53168570975298     ,0.0 ,-90.5578280037617     ,-90.5578280037617       ,        0.0 ,        0.0 , 0.0
 0.0 ,0.0 ,           0.0 ,            0.0 ,            0.0 ,            0.0 ,              0.0 ,                   0.0 ,1148.0 ,84.91469 ,-36.44699 ,           0.0 ,           0.0 ,       0.0 ,-178.294       ,-18.61759   ,-0.06367057      ,-0.0008062446    ,                 0.0 ,             0.0 ,             0.0 ,                 0.0 ,                 0.0 ,        0.0 ,1.8451095763874632     ,            0.0 ,            0.0 ,            0.0 ,              0.0 ,                   0.0 ,  0.0 ,0.0 ,1042.20237345661     ,1.0                ,0.0 ,-243.19610391097808 ,-489.4763866099223  ,10.741381378514319      ,-244.61767788969715 ,          0.0 ,          0.0 ,-242.70317590349475 ,-489.96923108743607 ,-244.61767788969715 ,-977.2901289496135  ,142.2097740634254    ,325.76337236252823  ,246.31453555260453   ,-420.56325145703136   ,-666.84349008699    ,10.741381378514319      ,-421.98476950473594 ,          0.0 ,          0.0 ,-420.0703152145328   ,-667.3363786334894  ,-421.98476950473594 ,-1509.3917497766372 ,142.2097740634254    ,503.1304758395959    ,246.31453555260453   ,2.242673418995425e-06   ,-2.480638341213807e-05  ,1.5580370303027334e-06  ,      0.0 ,      0.0 ,      0.0 ,2.2698956522658108e-06  ,-2.4833605068957392e-05 ,      0.0 ,-2.2563709499041733e-05 ,1.5037096874245803e-05 ,0.8474128119560334   ,0.4399097478262686      ,-0.0010763429373536477  ,-9.793111340330314e-05  ,0.0007901963125530734  ,-104.00643420956033    ,0.0 ,-73.3597453741602     ,-73.3597453741602       ,        0.0 ,        0.0 , 0.0
 0.0 ,0.0 ,           0.0 ,            0.0 ,            0.0 ,            0.0 ,              0.0 ,                   0.0 ,1149.0 ,86.69584 ,-36.06946 ,           0.0 ,           0.0 ,       0.0 ,-174.5416      ,-18.6153    ,-0.06899069      ,-0.004665606     ,                 0.0 ,             0.0 ,             0.0 ,                 0.0 ,                 0.0 ,        0.0 ,4.0                    ,            0.0 ,            0.0 ,            0.0 ,              0.0 ,                   0.0 ,  0.0 ,0.0 ,1055.7796209614253   ,1.0                ,0.0 ,-244.24720953628616 ,-489.7768932619915  ,13.02370084371973       ,-244.5099680692624  ,          0.0 ,          0.0 ,-243.55771275456615 ,-490.4663350176046  ,-244.5099680692624  ,-978.5340708675401  ,142.28020459443798   ,326.17804196454904  ,246.43657442582457   ,-417.06916553149824   ,-662.5987967240478  ,13.02370084371973       ,-417.3319240644744  ,          0.0 ,          0.0 ,-416.37966874977815  ,-663.2882935057678  ,-417.3319240644744  ,-1497.000221402518  ,142.28020459443798   ,498.99994542660534   ,246.43657442582457   ,2.7235300248174634e-06  ,-4.6085086832367065e-05 ,2.1815075770866566e-06  ,      0.0 ,      0.0 ,      0.0 ,2.7479327697261916e-06  ,-4.610948979675627e-05  ,      0.0 ,-4.3361558146492275e-05 ,2.7467465938049024e-05 ,0.8181059443034542   ,0.5243872339239932      ,-0.0012487053303787846  ,-0.00011674038708067998 ,0.0009510543111146086  ,-85.3711264024867      ,0.0 ,-87.44968553406363    ,-87.44968553406363      ,        0.0 ,        0.0 , 0.0
 0.0 ,0.0 ,           0.0 ,            0.0 ,            0.0 ,            0.0 ,              0.0 ,                   0.0 ,1150.0 ,88.67505 ,-35.67664 ,           0.0 ,           0.0 ,       0.0 ,-170.6356      ,-18.61308   ,-0.07676451      ,-0.0008637799    ,                 0.0 ,             0.0 ,             0.0 ,                 0.0 ,                 0.0 ,        0.0 ,4.0                    ,            0.0 ,            0.0 ,            0.0 ,              0.0 ,                   0.0 ,  0.0 ,0.0 ,1050.8558320261068   ,1.0                ,0.0 ,-244.4911095074895  ,-482.4713436535183  ,11.601392436097395      ,-241.72538645278496 ,          0.0 ,          0.0 ,-243.9238948221914  ,-483.03850845998545 ,-241.72538645278496 ,-968.6878396137927  ,138.69672023538078   ,322.89596316420796  ,240.22975769528483   ,-413.42746407228486   ,-651.4076980377155  ,11.601392436097395      ,-410.6617410175803  ,          0.0 ,          0.0 ,-412.86024938698677  ,-651.9749127230136  ,-410.6617410175803  ,-1475.4968554205489 ,138.69672023538078   ,491.8323175484052    ,240.22975769528483   ,-1.2993788967387966e-06 ,-4.3449734201347726e-05 ,1.8374711739710535e-06  ,      0.0 ,      0.0 ,      0.0 ,-1.2793504994656603e-06 ,-4.3469766127618336e-05 ,      0.0 ,-4.4749116936269724e-05 ,2.4761413610547253e-05 ,0.9993746857634347   ,-0.00018876408607578182 ,-0.0003350759135260919  ,-4.0132936584518396e-07 ,0.0020249037661839208  ,-168.6357166548077     ,0.0 ,-0.30063397694999394  ,-0.30063397694999394    ,        0.0 ,        0.0 , 0.0
 0.0 ,0.0 ,           0.0 ,            0.0 ,            0.0 ,            0.0 ,              0.0 ,                   0.0 ,1151.0 ,90.85538 ,-35.47941 ,           0.0 ,           0.0 ,       0.0 ,-168.6812      ,-18.61128   ,-0.0414871       ,0.001296511      ,                 0.0 ,             0.0 ,             0.0 ,                 0.0 ,                 0.0 ,        0.0 ,1.5008179391981886     ,            0.0 ,            0.0 ,            0.0 ,              0.0 ,                   0.0 ,  0.0 ,0.0 ,1051.5727979528342   ,1.0                ,0.0 ,-241.62979054951148 ,-471.7413134579589  ,7.800541982170223       ,-237.28194551162494 ,          0.0 ,          0.0 ,-241.34220067470508 ,-472.0289003027297  ,-237.28194551162494 ,-950.6529991607894  ,134.37870055469702   ,316.8843328147258   ,232.75068557940745   ,-410.8922446272428    ,-641.0037675356903  ,7.800541982170223       ,-406.5443511043741  ,          0.0 ,          0.0 ,-410.6046566257602   ,-641.2913574104966  ,-406.5443511043741  ,-1458.439914782325  ,134.37870055469702   ,486.1467887657809    ,232.75068557940745   ,-1.0288555853191355e-06 ,-5.5087408964287744e-06 ,-1.6836002900635699e-06 ,      0.0 ,      0.0 ,      0.0 ,-8.561009425315625e-07  ,-5.6814985292851085e-06 ,      0.0 ,-6.537598963832612e-06  ,3.0637908878907753e-06 ,0.8210439186289055   ,0.48450349781221325     ,-0.0023481642385949036  ,-0.0007256330313209095  ,0.0004581850235470886  ,-92.81066003794501     ,0.0 ,-76.44956839437609    ,-76.44956839437609      ,        0.0 ,        0.0 , 0.0
 0.0 ,0.0 ,           0.0 ,            0.0 ,            0.0 ,            0.0 ,              0.0 ,                   0.0 ,1152.0 ,93.10239 ,-35.38192 ,           0.0 ,           0.0 ,       0.0 ,-167.7161      ,-18.61031   ,-0.002940133     ,0.001863616      ,                 0.0 ,             0.0 ,             0.0 ,                 0.0 ,                 0.0 ,        0.0 ,2.2627696204159986     ,            0.0 ,            0.0 ,            0.0 ,              0.0 ,                   0.0 ,  0.0 ,0.0 ,1058.2592899648666   ,1.0                ,0.0 ,-238.86354426053992 ,-466.3631878242612  ,4.2906651392752675      ,-234.83689253523727 ,          0.0 ,          0.0 ,-238.74520318432104 ,-466.48155890683245 ,-234.83689253523727 ,-940.0636000456925  ,132.6284968869625    ,313.354536402363    ,229.71925639832176   ,-407.51414433516476   ,-635.0137878988861  ,4.2906651392752675      ,-403.4874171842082  ,          0.0 ,          0.0 ,-407.39577325259364  ,-635.1321289751049  ,-403.4874171842082  ,-1446.0152448057993 ,132.6284968869625    ,482.0051064706356    ,229.71925639832176   ,-1.5081027467782988e-06 ,-7.685771599370704e-06  ,-3.1269734542331394e-06 ,      0.0 ,      0.0 ,      0.0 ,-1.1296731905971126e-06 ,-8.064202047546997e-06  ,      0.0 ,-9.19387584646662e-06   ,4.366856914724059e-06  ,0.7998984107854386   ,0.544119490616843       ,-0.0015958603497626062  ,-0.0009188085548939896  ,0.001749157261940424   ,-82.16004557900594     ,0.0 ,-86.48864296875848    ,-86.48864296875848      ,        0.0 ,        0.0 , 0.0
 0.0 ,0.0 ,           0.0 ,            0.0 ,            0.0 ,            0.0 ,              0.0 ,                   0.0 ,1153.0 ,95.36498 ,-35.4125  ,           0.0 ,           0.0 ,       0.0 ,-168.0188      ,-18.61062   ,0.0285426        ,0.0007851246     ,                 0.0 ,             0.0 ,             0.0 ,                 0.0 ,                 0.0 ,        0.0 ,1.0821743209718964     ,            0.0 ,            0.0 ,            0.0 ,              0.0 ,                   0.0 ,  0.0 ,0.0 ,1064.095914074327    ,1.0                ,0.0 ,-236.1182685598042  ,-464.7288487240507  ,1.3802162177746027      ,-233.44633342925306 ,          0.0 ,          0.0 ,-236.06881202375334 ,-464.77830526010155 ,-233.44633342925306 ,-934.2933919200785  ,132.80914684965344   ,311.4311365020458   ,230.0321588909903    ,-404.3829577154586    ,-632.9935378797052  ,1.3802162177746027      ,-401.71101218489594 ,          0.0 ,          0.0 ,-404.33350117940773  ,-633.0429944157559  ,-401.71101218489594 ,-1439.0875951974685 ,132.80914684965344   ,479.6958410611797    ,230.0321588909903    ,-8.947372688863177e-07  ,-6.591652561094585e-06  ,-1.8267410300963453e-06 ,      0.0 ,      0.0 ,      0.0 ,-7.114105630997951e-07  ,-6.774978750811287e-06  ,      0.0 ,-7.486389367876517e-06  ,3.723860227424073e-06  ,0.7862355999956439   ,0.58673713952578        ,-9.583220605434802e-05  ,-0.0011238064170465654  ,0.0012758524719921004  ,-74.53764553053904     ,0.0 ,-93.72584862463678    ,-93.72584862463678      ,        0.0 ,        0.0 , 0.0
 0.0 ,0.0 ,           0.0 ,            0.0 ,            0.0 ,            0.0 ,              0.0 ,                   0.0 ,1154.0 ,97.46376 ,-35.90931 ,           0.0 ,           0.0 ,       0.0 ,-172.9639      ,-18.61292   ,0.02240517       ,-0.002324391     ,                 0.0 ,             0.0 ,             0.0 ,                 0.0 ,                 0.0 ,        0.0 ,1.116377009414034      ,            0.0 ,            0.0 ,            0.0 ,              0.0 ,                   0.0 ,  0.0 ,0.0 ,1048.2954926930643   ,1.0                ,0.0 ,-236.38931468028028 ,-467.8661932302654  ,-0.6748969008028494     ,-234.77567215004146 ,          0.0 ,          0.0 ,-236.38639395007073 ,-467.86911396047503 ,-234.77567215004146 ,-939.0310871623642  ,134.1147028569876    ,313.0103747472456   ,232.29346656142178   ,-409.1059647670194    ,-640.5828433170046  ,-0.6748969008028494     ,-407.4923293385576  ,          0.0 ,          0.0 ,-409.1030440368098   ,-640.5857640472141  ,-407.4923293385576  ,-1457.1814094150568 ,134.1147028569876    ,485.7270806528351    ,232.29346656142178   ,-1.3944472656720997e-06 ,-1.4050946665265222e-05 ,-3.1243547456896607e-06 ,      0.0 ,      0.0 ,      0.0 ,-1.2025040120466724e-06 ,-1.424289235474432e-05  ,      0.0 ,-1.544539274354254e-05  ,7.898929077052e-06     ,0.6639233017925847   ,0.9288741311012252      ,-0.00020151272856797027 ,-0.0014474766151760608  ,0.00013007423066751275 ,-12.843837534371962    ,0.0 ,-159.8712743729746    ,-159.8712743729746      ,        0.0 ,        0.0 , 0.0
 0.0 ,0.0 ,           0.0 ,            0.0 ,            0.0 ,            0.0 ,              0.0 ,                   0.0 ,1155.0 ,99.50492 ,-36.16492 ,           0.0 ,           0.0 ,       0.0 ,-175.4822      ,-18.6167    ,0.01049788       ,4.131446e-05     ,                 0.0 ,             0.0 ,             0.0 ,                 0.0 ,                 0.0 ,        0.0 ,1.6013155437138984     ,            0.0 ,            0.0 ,            0.0 ,              0.0 ,                   0.0 ,  0.0 ,0.0 ,1053.5311229534973   ,1.0                ,0.0 ,-236.849610073399   ,-471.3821998627407  ,-1.5197429704195469     ,-236.17277272554156 ,          0.0 ,          0.0 ,-236.83528195839543 ,-471.39648230780955 ,-236.17277272554156 ,-944.4045083973933  ,135.61569705821415   ,314.80152660101334  ,234.89327686481667   ,-411.8071239525067    ,-646.3397137418483  ,-1.5197429704195469     ,-411.1302866046492  ,          0.0 ,          0.0 ,-411.79284150743786  ,-646.354041856852   ,-411.1302866046492  ,-1469.2773644121291 ,135.61569705821415   ,489.7590690744742    ,234.89327686481667   ,-1.6582392936691562e-06 ,-1.665566084750024e-05  ,-2.292645507947645e-06  ,      0.0 ,      0.0 ,      0.0 ,-1.5416617255125934e-06 ,-1.6772240102731586e-05 ,      0.0 ,-1.831390111342505e-05  ,9.27072797187677e-06   ,0.6400206152633025   ,1.0                     ,0.0008239967067401087   ,-0.0015499051061001305  ,0.0                    ,0.0024190815728734544  ,0.0 ,-174.95758814339567   ,-174.95758814339567     ,        0.0 ,        0.0 , 0.0
 0.0 ,0.0 ,           0.0 ,            0.0 ,            0.0 ,            0.0 ,              0.0 ,                   0.0 ,1156.0 ,101.5075 ,-36.25991 ,           0.0 ,           0.0 ,       0.0 ,-176.3768      ,-18.62222   ,0.008678738      ,0.0001148358     ,                 0.0 ,             0.0 ,             0.0 ,                 0.0 ,                 0.0 ,        0.0 ,0.4968079310460148     ,            0.0 ,            0.0 ,            0.0 ,              0.0 ,                   0.0 ,  0.0 ,0.0 ,1056.542146600681    ,1.0                ,0.0 ,-236.8061547631202  ,-472.75835723282194 ,-1.5103827653303474     ,-236.59382923812893 ,          0.0 ,          0.0 ,-236.79544816232288 ,-472.7690134902208  ,-236.59382923812893 ,-946.1582908664811  ,136.29767786040543   ,315.38609719248984  ,236.07450064849104   ,-412.3227634075416    ,-648.2749659014348  ,-1.5103827653303474     ,-412.1104378825503  ,          0.0 ,          0.0 ,-412.3121071743342   ,-648.2856724780406  ,-412.1104378825503  ,-1472.708415967799  ,136.29767786040543   ,490.90275549351276   ,236.07450064849104   ,-1.8807885088262826e-06 ,-1.802967147913095e-05  ,-1.7250395720948982e-06 ,      0.0 ,      0.0 ,      0.0 ,-1.83471384498522e-06   ,-1.807574514998513e-05  ,      0.0 ,-1.9910459492262115e-05 ,9.948811564611645e-06  ,0.8195768476554042   ,0.5039129684580322      ,0.0005322284034128322   ,-0.0008139144284334772  ,0.0009184065523405904  ,-82.17633319039635     ,0.0 ,-93.3386895208107     ,-93.3386895208107       ,        0.0 ,        0.0 , 0.0
 0.0 ,0.0 ,           0.0 ,            0.0 ,            0.0 ,            0.0 ,              0.0 ,                   0.0 ,1157.0 ,103.4888 ,-36.28044 ,           0.0 ,           0.0 ,       0.0 ,-176.5048      ,-18.62995   ,0.008497615      ,-9.782139e-05    ,                 0.0 ,             0.0 ,             0.0 ,                 0.0 ,                 0.0 ,        0.0 ,1.7446564106671167     ,            0.0 ,            0.0 ,            0.0 ,              0.0 ,                   0.0 ,  0.0 ,0.0 ,1054.0037436897696   ,0.9999999999999999 ,0.0 ,-236.74193559335123 ,-473.50237265931025 ,-2.0481883326628        ,-236.8429531520873  ,          0.0 ,          0.0 ,-236.72391035871038 ,-473.52039789395104 ,-236.8429531520873  ,-947.0872364084278  ,136.6801510165152    ,315.6957204682496   ,236.73699087321233   ,-412.5940050075028    ,-649.3544670697827  ,-2.0481883326628        ,-412.6950225662388  ,          0.0 ,          0.0 ,-412.576054238503    ,-649.3724673081026  ,-412.6950225662388  ,-1474.6436946729568 ,136.6801510165152    ,491.54788988240114   ,236.73699087321233   ,-8.725392073654025e-07  ,-2.716143472712985e-05  ,-7.125947172221197e-06  ,      0.0 ,      0.0 ,      0.0 ,-3.1378448854326536e-07 ,-2.772018977258e-05     ,      0.0 ,-2.803397531844241e-05  ,1.594009116863132e-05  ,0.7339110003116769   ,0.744778375200615       ,0.0010311165574672181   ,-0.002055794716685042   ,0.00047249211854258566 ,-42.27543558452752     ,0.0 ,-133.57403922514115   ,-133.57403922514115     ,        0.0 ,        0.0 , 0.0
 0.0 ,0.0 ,           0.0 ,            0.0 ,            0.0 ,            0.0 ,              0.0 ,                   0.0 ,1158.0 ,105.4598 ,-36.27539 ,           0.0 ,           0.0 ,       0.0 ,-176.3493      ,-18.64046   ,0.007966122      ,-0.0001183217    ,                 0.0 ,             0.0 ,             0.0 ,                 0.0 ,                 0.0 ,        0.0 ,2.9980159473914783     ,            0.0 ,            0.0 ,            0.0 ,              0.0 ,                   0.0 ,  0.0 ,0.0 ,1059.0974226375376   ,1.0                ,0.0 ,-236.7431780785622  ,-474.1077180246479  ,-2.1685688457192716     ,-236.86095040772312 ,          0.0 ,          0.0 ,-236.72327592586376 ,-474.12762019121215 ,-236.86095040772312 ,-947.7118465247992  ,137.02572710708796   ,315.90391551751026  ,237.33548226335046   ,-412.3060762727725    ,-649.670616232724   ,-2.1685688457192716     ,-412.42384860193334 ,          0.0 ,          0.0 ,-412.28622419154505  ,-649.6905183854225  ,-412.42384860193334 ,-1474.4005417623928 ,137.02572710708796   ,491.4668637831915    ,237.33548226335046   ,-5.742679743775852e-08  ,-2.7765601816651963e-05 ,-7.064942166934597e-06  ,      0.0 ,      0.0 ,      0.0 ,3.9930127750400166e-07  ,-2.8222333853589903e-05 ,      0.0 ,-2.7823033109545563e-05 ,1.6412521904782356e-05 ,0.8208786757989928   ,0.5023082674507423      ,0.00013443802122860014  ,-0.001919053218239103   ,0.0018599663484209032  ,-91.97483061134491     ,0.0 ,-83.5858587855722     ,-83.5858587855722       ,        0.0 ,        0.0 , 0.0
 0.0 ,0.0 ,           0.0 ,            0.0 ,            0.0 ,            0.0 ,              0.0 ,                   0.0 ,1159.0 ,107.4259 ,-36.26418 ,           0.0 ,           0.0 ,       0.0 ,-176.0981      ,-18.65437   ,0.006632887      ,-7.368816e-05    ,                 0.0 ,             0.0 ,             0.0 ,                 0.0 ,                 0.0 ,        0.0 ,0.5023936848113301     ,            0.0 ,            0.0 ,            0.0 ,              0.0 ,                   0.0 ,  0.0 ,0.0 ,1060.1032970341364   ,1.0                ,0.0 ,-236.6223565865704  ,-474.57789999277486 ,-1.9772625453943098     ,-237.03025881367623 ,          0.0 ,          0.0 ,-236.6059570548406  ,-474.59434961415405 ,-237.03025881367623 ,-948.2305653729984  ,137.28044904865254   ,316.07685511098396  ,237.77666766126072   ,-411.9883415220853    ,-649.9438849979159  ,-1.9772625453943098     ,-412.39624363951856 ,          0.0 ,          0.0 ,-411.9718920800049   ,-649.9603344399964  ,-412.39624363951856 ,-1474.3286703788654 ,137.28044904865254   ,491.4428400464989    ,237.77666766126072   ,-7.596604834424169e-07  ,-1.727414352096993e-05  ,-4.182158954534772e-06  ,      0.0 ,      0.0 ,      0.0 ,-4.986388200160439e-07  ,-1.7535167679913832e-05 ,      0.0 ,-1.8033805501722867e-05 ,9.98348163108357e-06   ,0.8224207416655094   ,0.5035708694561261      ,-0.0002851678172483066  ,-0.001010743803377352   ,0.004068880404495325   ,-83.43868548304751     ,0.0 ,-91.92506346068164    ,-91.92506346068164      ,        0.0 ,        0.0 , 0.0
 0.0 ,0.0 ,           0.0 ,            0.0 ,            0.0 ,            0.0 ,              0.0 ,                   0.0 ,1160.0 ,109.389  ,-36.25329 ,           0.0 ,           0.0 ,       0.0 ,-175.8095      ,-18.67234   ,0.005166767      ,-2.595405e-05    ,                 0.0 ,             0.0 ,             0.0 ,                 0.0 ,                 0.0 ,        0.0 ,2.0000222940403085     ,            0.0 ,            0.0 ,            0.0 ,              0.0 ,                   0.0 ,  0.0 ,0.0 ,1061.0819833888572   ,1.0                ,0.0 ,-236.59739407794547 ,-474.5517916338267  ,-1.8515713954651878     ,-237.0705711897997  ,          0.0 ,          0.0 ,-236.58294633729543 ,-474.56628930601164 ,-237.0705711897997  ,-948.2197569015718  ,137.25930417447802   ,316.07325229978085  ,237.74008069277085   ,-412.51888949972044   ,-650.4732369871365  ,-1.8515713954651878     ,-412.99201654088006 ,          0.0 ,          0.0 ,-412.5043918297649   ,-650.487734657092   ,-412.99201654088006 ,-1475.984491985154  ,137.25930417447802   ,491.9946976530906    ,237.74008069277085   ,5.811191613440578e-07   ,-2.0089868256720417e-05 ,-7.75575507452001e-06   ,      0.0 ,      0.0 ,      0.0 ,1.3857119934699164e-06  ,-2.0894460993440775e-05 ,      0.0 ,-1.950875009688482e-05  ,1.261532880459798e-05  ,0.6451054429378646   ,0.9986205300965005      ,0.007780170981333472    ,-0.00556499440022309    ,1.5267419910694057e-05 ,-0.22162171477743794   ,0.0 ,-175.69019724211208   ,-175.69019724211208     ,        0.0 ,        0.0 , 0.0
 0.0 ,0.0 ,           0.0 ,            0.0 ,            0.0 ,            0.0 ,              0.0 ,                   0.0 ,1161.0 ,111.3495 ,-36.24409 ,           0.0 ,           0.0 ,       0.0 ,-175.4906      ,-18.69503   ,0.003795584      ,-3.776525e-06    ,                 0.0 ,             0.0 ,             0.0 ,                 0.0 ,                 0.0 ,        0.0 ,0.9996645169741499     ,            0.0 ,            0.0 ,            0.0 ,              0.0 ,                   0.0 ,  0.0 ,0.0 ,1062.058702260181    ,1.0                ,0.0 ,-236.70859534672744 ,-475.01273921449564 ,-1.4428394704463536     ,-237.28562275514903 ,          0.0 ,          0.0 ,-236.69944824849892 ,-475.0218863127241  ,-237.28562275514903 ,-949.0069573163721  ,137.42660032532282   ,316.3356523940638   ,238.02987566832925   ,-412.1391032585579    ,-650.4431970760098  ,-1.4428394704463536     ,-412.7160806166633  ,          0.0 ,          0.0 ,-412.1299560261487   ,-650.4523443084191  ,-412.7160806166633  ,-1475.2984309009275 ,137.42660032532282   ,491.76611038975875   ,238.02987566832925   ,-2.1690795414473124e-07 ,-1.0652141009287643e-05 ,-4.257071031681595e-06  ,      0.0 ,      0.0 ,      0.0 ,2.0075669280273635e-07  ,-1.1069807257576867e-05 ,      0.0 ,-1.0869050010329412e-05 ,6.4499546583971845e-06 ,0.8228673323700146   ,0.5038561138309605      ,0.0038639035641742504   ,-0.0019338384720816273  ,0.005487430745804062   ,-83.17942631486055     ,0.0 ,-92.24357958760699    ,-92.24357958760699      ,        0.0 ,        0.0 , 0.0
 0.0 ,0.0 ,           0.0 ,            0.0 ,            0.0 ,            0.0 ,              0.0 ,                   0.0 ,1162.0 ,113.3081 ,-36.23611 ,           0.0 ,           0.0 ,       0.0 ,-175.131       ,-18.72301   ,0.002469064      ,-5.655553e-06    ,                 0.0 ,             0.0 ,             0.0 ,                 0.0 ,                 0.0 ,        0.0 ,1.5021711072749764     ,            0.0 ,            0.0 ,            0.0 ,              0.0 ,                   0.0 ,  0.0 ,0.0 ,1063.051645611897    ,1.0                ,0.0 ,-237.33623222965377 ,-476.1824474645658  ,-1.2298568247307538     ,-237.7069596554078  ,          0.0 ,          0.0 ,-237.32983652219775 ,-476.18884330265587 ,-237.7069596554078  ,-951.2256393496274  ,137.79663407507238   ,317.0751798702985   ,238.6707458035438    ,-411.82317008708856   ,-650.6693354084773  ,-1.2298568247307538     ,-412.1937975128426  ,          0.0 ,          0.0 ,-411.81672433547527  ,-650.6757810294566  ,-412.1937975128426  ,-1474.6862027471404 ,137.79663407507238   ,491.56211759709925   ,238.6707458035438    ,-8.212136677545964e-07  ,-2.5721983673780963e-05 ,-7.607176837588113e-06  ,      0.0 ,      0.0 ,      0.0 ,-2.323172661215878e-07  ,-2.631088192251057e-05  ,      0.0 ,-2.6543194694299094e-05 ,1.5151947288731367e-05 ,0.8221804402823337   ,0.5043278269980498      ,0.005606685828153036    ,-0.002333459846493305   ,0.004112932715801536   ,-82.20849054538373     ,0.0 ,-92.27028064924468    ,-92.27028064924468      ,        0.0 ,        0.0 , 0.0
 0.0 ,0.0 ,           0.0 ,            0.0 ,            0.0 ,            0.0 ,              0.0 ,                   0.0 ,1163.0 ,115.2647 ,-36.22906 ,           0.0 ,           0.0 ,       0.0 ,-174.7234      ,-18.75671   ,0.001322579      ,1.035221e-05     ,                 0.0 ,             0.0 ,             0.0 ,                 0.0 ,                 0.0 ,        0.0 ,2.4984073282779367     ,            0.0 ,            0.0 ,            0.0 ,              0.0 ,                   0.0 ,  0.0 ,0.0 ,1064.0255620607259   ,1.0                ,0.0 ,-237.12326537746037 ,-475.47479903694494 ,-0.8382434331593787     ,-237.61201222336723 ,          0.0 ,          0.0 ,-237.12026593194173 ,-475.47779843527417 ,-237.61201222336723 ,-950.2100266594019  ,137.4741109075383    ,316.7367088261684   ,238.1121090567843    ,-412.5113675644263    ,-650.862851155092   ,-0.8382434331593787     ,-413.000064479152   ,          0.0 ,          0.0 ,-412.5083180972782   ,-650.865850691059   ,-413.000064479152   ,-1476.3740837885496 ,137.4741109075383    ,492.12476108195324   ,238.1121090567843    ,1.949041653900083e-06   ,-1.2309913682196596e-05 ,-4.905651722850042e-06  ,      0.0 ,      0.0 ,      0.0 ,2.359235763646136e-06   ,-1.2720109792434196e-05 ,      0.0 ,-1.0360874530199834e-05 ,8.146904781789146e-06  ,0.8219159722533762   ,0.5097010647565908      ,0.009826285109875186    ,-0.005910392980195762   ,0.009760675810886792   ,-91.88333535131379     ,0.0 ,-83.49122302505282    ,-83.49122302505282      ,        0.0 ,        0.0 , 0.0
 0.0 ,0.0 ,           0.0 ,            0.0 ,            0.0 ,            0.0 ,              0.0 ,                   0.0 ,1164.0 ,117.2191 ,-36.22061 ,           0.0 ,           0.0 ,       0.0 ,-174.2434      ,-18.79627   ,0.0003759231     ,1.286485e-05     ,                 0.0 ,             0.0 ,             0.0 ,                 0.0 ,                 0.0 ,        0.0 ,1.002100183068103      ,            0.0 ,            0.0 ,            0.0 ,              0.0 ,                   0.0 ,  0.0 ,0.0 ,1065.0685629618183   ,1.0                ,0.0 ,-237.96370670798197 ,-477.5165146633149  ,-0.6757430533945249     ,-238.28846231033137 ,          0.0 ,          0.0 ,-237.96175823486524 ,-477.51851318221895 ,-238.28846231033137 ,-953.7687337274157  ,138.21395196845953   ,317.92289459106763  ,239.39357795266608   ,-411.3847967443007    ,-650.9375547454212  ,-0.6757430533945249     ,-411.7095523466501  ,          0.0 ,          0.0 ,-411.3827483761932   ,-650.9395531727505  ,-411.7095523466501  ,-1474.032103233186  ,138.21395196845953   ,491.3439846273864    ,239.39357795266608   ,9.73244805960829e-07    ,-2.7310958121794124e-05 ,-7.761253528936217e-06  ,      0.0 ,      0.0 ,      0.0 ,1.500953714604135e-06   ,-2.783866777870053e-05  ,      0.0 ,-2.6337714963272222e-05 ,1.6529839386114577e-05 ,0.8226943658811162   ,0.5061515155580942      ,0.004388246060626861    ,-0.002417999195528052   ,0.006731765557246352   ,-91.40335133622665     ,0.0 ,-82.01157932568911    ,-82.01157932568911      ,        0.0 ,        0.0 , 0.0
 0.0 ,0.0 ,           0.0 ,            0.0 ,            0.0 ,            0.0 ,              0.0 ,                   0.0 ,1165.0 ,119.1698 ,-36.21293 ,           0.0 ,           0.0 ,       0.0 ,-173.7155      ,-18.84138   ,-0.0007244633    ,2.559281e-05     ,                 0.0 ,             0.0 ,             0.0 ,                 0.0 ,                 0.0 ,        0.0 ,2.4984577567409936     ,            0.0 ,            0.0 ,            0.0 ,              0.0 ,                   0.0 ,  0.0 ,0.0 ,1065.8264903647662   ,1.0                ,0.0 ,-237.9201984237967  ,-476.49755662148243 ,-0.2488976152173122     ,-238.19207976145321 ,          0.0 ,          0.0 ,-237.9198985016357  ,-476.4978562351948  ,-238.19207976145321 ,-952.6098846525081  ,137.66453065976475   ,317.5366116531677   ,238.44199221822825   ,-412.1344972008672    ,-650.7119053221676  ,-0.2488976152173122     ,-412.4064284621385  ,          0.0 ,          0.0 ,-412.1342472023209   ,-650.7121553207139  ,-412.4064284621385  ,-1475.2525306017928 ,137.66453065976475   ,491.75096035385286   ,238.44199221822825   ,1.9911369111007267e-06  ,-9.00508625690435e-06   ,-1.8010316303381563e-06 ,      0.0 ,      0.0 ,      0.0 ,2.0855796469349927e-06  ,-9.099529007353585e-06  ,      0.0 ,-7.013950862739225e-06  ,5.953584490609148e-06  ,1.0                  ,0.030158200267306923    ,-0.007020679980780451   ,0.0                     ,0.03105798214543743    ,-174.2143487006852     ,0.0 ,0.0                   ,0.0                     ,        0.0 ,        0.0 , 0.0
 0.0 ,0.0 ,           0.0 ,            0.0 ,            0.0 ,            0.0 ,              0.0 ,                   0.0 ,1166.0 ,119.1722 ,-34.31936 ,           0.0 ,           0.0 ,       0.0 ,-154.8884      ,-18.83053   ,-0.00169621      ,4.428918e-05     ,                 0.0 ,             0.0 ,             0.0 ,                 0.0 ,                 0.0 ,        0.0 ,2.4989571976240734     ,            0.0 ,            0.0 ,            0.0 ,              0.0 ,                   0.0 ,  0.0 ,0.0 ,1066.9714831580186   ,1.0                ,0.0 ,-230.0997410804055  ,-461.3931347303283  ,-0.32009900912024253    ,-230.55277439488881 ,          0.0 ,          0.0 ,-230.09929107894138 ,-461.39358475896046 ,-230.55277439488881 ,-922.0457002584947  ,133.40715474958785   ,307.34860003378077  ,231.0678772720901    ,-385.5505267236078    ,-616.8439203735308  ,-0.32009900912024253    ,-386.0035601166673  ,          0.0 ,          0.0 ,-385.5500767221437   ,-616.8444203492907  ,-386.0035601166673  ,-1388.397507370958  ,133.40715474958785   ,462.79933570268713   ,231.0678772720901    ,3.302274879829584e-06   ,-1.1674980431139509e-05 ,-1.937165872812993e-06  ,      0.0 ,      0.0 ,      0.0 ,3.3677393659544676e-06  ,-1.174044791723511e-05  ,      0.0 ,-8.37270905440905e-06   ,7.934854830979225e-06  ,0.9997202133352654   ,0.03253994817337331     ,-0.011148521646321359   ,-4.5303610433162085e-06 ,0.03379956603818862    ,-155.3371495107677     ,0.0 ,-0.11362204812238168  ,-0.11362204812238168    ,        0.0 ,        0.0 , 0.0
 0.0 ,0.0 ,           0.0 ,            0.0 ,            0.0 ,            0.0 ,              0.0 ,                   0.0 ,1167.0 ,119.1733 ,-32.42442 ,           0.0 ,           0.0 ,       0.0 ,-136.107       ,-18.81372   ,-0.002466559     ,1.304044e-05     ,                 0.0 ,             0.0 ,             0.0 ,                 0.0 ,                 0.0 ,        0.0 ,1.4989453381190139     ,            0.0 ,            0.0 ,            0.0 ,              0.0 ,                   0.0 ,  0.0 ,0.0 ,1067.881340850016    ,1.0                ,0.0 ,-222.45025886653838 ,-447.37284025381234 ,-0.4020998191522228     ,-223.16375428660928 ,          0.0 ,          0.0 ,-222.4495097620321  ,-447.37358935831855 ,-223.16375428660928 ,-892.9869031979653  ,129.65427201100013   ,297.66228441657654  ,224.56785685843118   ,-358.326837362039     ,-583.2494189065435  ,-0.4020998191522228     ,-359.04038288757624 ,          0.0 ,          0.0 ,-358.3260882575328   ,-583.2501678538192  ,-359.04038288757624 ,-1300.6165395204462 ,129.65427201100013   ,433.5388630693076    ,224.56785685843118   ,6.483433156224366e-06   ,-2.7671916223015676e-05 ,-3.991567130064632e-06  ,      0.0 ,      0.0 ,      0.0 ,6.608904950927381e-06   ,-2.7797389028763574e-05 ,      0.0 ,-2.1188485574212696e-05 ,1.8259224533596837e-05 ,0.6435902018372244   ,0.9984572524854521      ,0.021229974966124554    ,-0.011228764598822414   ,3.252495710872342e-05  ,-0.17354943698148487   ,0.0 ,-135.6788222179801    ,-135.6788222179801      ,        0.0 ,        0.0 , 0.0
 0.0 ,0.0 ,           0.0 ,            0.0 ,            0.0 ,            0.0 ,              0.0 ,                   0.0 ,1168.0 ,119.1707 ,-30.52868 ,           0.0 ,           0.0 ,       0.0 ,-117.3967      ,-18.78901   ,-0.003177355     ,4.98364e-05      ,                 0.0 ,             0.0 ,             0.0 ,                 0.0 ,                 0.0 ,        0.0 ,0.5019316054894639     ,            0.0 ,            0.0 ,            0.0 ,              0.0 ,                   0.0 ,  0.0 ,0.0 ,1068.9073251810155   ,1.0                ,0.0 ,-214.6440412489601  ,-432.09024140456097 ,-0.2693252385861937     ,-215.49859949419536 ,          0.0 ,          0.0 ,-214.64369144212066 ,-432.09059121140046 ,-215.49859949419536 ,-862.2328321763441  ,125.29700464405012   ,287.4109440957461   ,217.02076971491175   ,-331.74068379082274   ,-549.1869340286901  ,-0.2693252385861937     ,-332.5952920074303  ,          0.0 ,          0.0 ,-331.74033409487737  ,-549.1872337532632  ,-332.5952920074303  ,-1213.5228602382756 ,125.29700464405012   ,404.5076366089811    ,217.02076971491175   ,4.857116291420266e-06   ,-1.826911980723401e-05  ,-1.5271319346994306e-06 ,      0.0 ,      0.0 ,      0.0 ,4.8823001854506105e-06  ,-1.8294307199260416e-05 ,      0.0 ,-1.3412006025471768e-05 ,1.2218030884800714e-05 ,1.0                  ,0.023133133861266898    ,-0.014055666635896073   ,0.0                     ,0.027179657244271842   ,-117.09669251323498    ,0.0 ,0.0                   ,0.0                     ,        0.0 ,        0.0 , 0.0
 0.0 ,0.0 ,           0.0 ,            0.0 ,            0.0 ,            0.0 ,              0.0 ,                   0.0 ,1169.0 ,119.167  ,-28.63036 ,           0.0 ,           0.0 ,       0.0 ,-98.7707       ,-18.75328   ,-0.003578478     ,2.441291e-05     ,                 0.0 ,             0.0 ,             0.0 ,                 0.0 ,                 0.0 ,        0.0 ,2.001421171622554      ,            0.0 ,            0.0 ,            0.0 ,              0.0 ,                   0.0 ,  0.0 ,0.0 ,1069.924531460326    ,1.0                ,0.0 ,-206.92768214870154 ,-416.46463606564583 ,-0.13402299493263942    ,-207.73170446663926 ,          0.0 ,          0.0 ,-206.9274822908187  ,-416.46483592352865 ,-207.73170446663926 ,-831.1240226809866  ,120.74500089896497   ,277.0413575826035   ,209.1364917031501    ,-305.3775246718229    ,-514.9144786513563  ,-0.13402299493263942    ,-306.1815469897607  ,          0.0 ,          0.0 ,-305.3773248765291   ,-514.9146784466501  ,-306.1815469897607  ,-1126.473250625885  ,120.74500089896497   ,375.4911501014901    ,209.1364917031501    ,5.244406897598782e-06   ,-1.774592469068556e-05  ,9.896475646244613e-07   ,      0.0 ,      0.0 ,      0.0 ,5.2551348552504e-06     ,-1.775665264833718e-05  ,      0.0 ,-1.2501517799345679e-05 ,1.2058605934358592e-05 ,0.8184539251236029   ,0.5137685756887469      ,0.003908038403827736    ,-0.010351886686419075   ,0.016827652742420218   ,-54.19277060524995     ,0.0 ,-44.23993161628393    ,-44.23993161628393      ,        0.0 ,        0.0 , 0.0
 0.0 ,0.0 ,           0.0 ,            0.0 ,            0.0 ,            0.0 ,              0.0 ,                   0.0 ,1170.0 ,119.1589 ,-26.72922 ,           0.0 ,           0.0 ,       0.0 ,-80.27957      ,-18.70126   ,-0.003895893     ,-1.525279e-05    ,                 0.0 ,             0.0 ,             0.0 ,                 0.0 ,                 0.0 ,        0.0 ,2.007534612008668      ,            0.0 ,            0.0 ,            0.0 ,              0.0 ,                   0.0 ,  0.0 ,0.0 ,1015.0166407276369   ,1.0                ,0.0 ,-199.22723782564137 ,-400.96758855016196 ,-0.16721942981831991    ,-199.98648686315175 ,          0.0 ,          0.0 ,-199.2269389929387  ,-400.9678873828646  ,-199.98648686315175 ,-800.1813630320369  ,116.25661483627474   ,266.72712114244007  ,201.3623222315413    ,-279.20734605576155   ,-480.94764698720013 ,-0.16721942981831991    ,-279.9665950932719  ,          0.0 ,          0.0 ,-279.20704722305885  ,-480.9479956129848  ,-279.9665950932719  ,-1040.1214375154793 ,116.25661483627474   ,346.70717918419507   ,201.3623222315413    ,5.257090737774858e-06   ,-1.779414940860552e-05  ,9.950410549295853e-07   ,      0.0 ,      0.0 ,      0.0 ,5.267826029112575e-06   ,-1.7804884699943236e-05 ,      0.0 ,-1.253705867083066e-05  ,1.2090723500542774e-05 ,0.6362742983563547   ,0.9998195641033886      ,0.0275654493190011      ,-0.029898780568417146   ,6.24269689792905e-06   ,0.021012174895969408   ,0.0 ,-79.959951577385      ,-79.959951577385        ,        0.0 ,        0.0 , 0.0
 0.0 ,0.0 ,           0.0 ,            0.0 ,            0.0 ,            0.0 ,              0.0 ,                   0.0 ,1171.0 ,117.2003 ,-26.73532 ,           0.0 ,           0.0 ,       0.0 ,-80.9028       ,-18.64504   ,-0.001301512     ,7.80155e-05      ,                 0.0 ,             0.0 ,             0.0 ,                 0.0 ,                 0.0 ,        0.0 ,1.499925088311191      ,            0.0 ,            0.0 ,            0.0 ,              0.0 ,                   0.0 ,  0.0 ,0.0 ,1071.9597593037283   ,1.0                ,0.0 ,-198.23217056730942 ,-399.36912863549287 ,-0.5023800096834874     ,-199.34695949475892 ,          0.0 ,          0.0 ,-198.23082039865153 ,-399.37042884100015 ,-199.34695949475892 ,-796.9483086313537  ,115.80717563775758   ,265.6494029114702   ,200.5839123000526    ,-280.1592006322977    ,-481.2961087666887  ,-0.5023800096834874     ,-281.2739895597472  ,          0.0 ,          0.0 ,-280.1578504636399   ,-481.2974589059884  ,-281.2739895597472  ,-1042.729099106131  ,115.80717563775758   ,347.5764329764585    ,200.5839123000526    ,3.3334341525057277e-06  ,-2.2684187791005833e-06 ,-1.9205871755749474e-06 ,      0.0 ,      0.0 ,      0.0 ,3.495381992821968e-06   ,-2.4303671269837085e-06 ,      0.0 ,1.0650148683116244e-06  ,2.9838249696582894e-06 ,0.8176004724139246   ,0.5146526184597664      ,-0.009454736448278909   ,-0.019590439572336724   ,0.027394425777559576   ,-46.17273327228248     ,0.0 ,-35.730226627673524   ,-35.730226627673524     ,        0.0 ,        0.0 , 0.0
 0.0 ,0.0 ,           0.0 ,            0.0 ,            0.0 ,            0.0 ,              0.0 ,                   0.0 ,1172.0 ,115.2431 ,-26.74453 ,           0.0 ,           0.0 ,       0.0 ,-81.3523       ,-18.6093    ,0.0007955362     ,0.000100039      ,                 0.0 ,             0.0 ,             0.0 ,                 0.0 ,                 0.0 ,        0.0 ,1.9997942102470396     ,            0.0 ,            0.0 ,            0.0 ,              0.0 ,                   0.0 ,  0.0 ,0.0 ,1072.983420669183    ,1.0                ,0.0 ,-198.37160137657207 ,-399.77563013266956 ,-0.7774912692398463     ,-199.3434614053575  ,          0.0 ,          0.0 ,-198.36825174834544 ,-399.77897976089616 ,-199.3434614053575  ,-797.4906929100449  ,116.00418586519866   ,265.83023097001495  ,200.9251228789036    ,-280.10590398529934   ,-481.50993274595095 ,-0.7774912692398463     ,-281.0778139992412  ,          0.0 ,          0.0 ,-280.1026043422291   ,-481.5132823696234  ,-281.0778139992412  ,-1042.6937506916959 ,116.00418586519866   ,347.56458356845275   ,200.9251228789036    ,2.490048794248962e-06   ,-2.3189512945719385e-05 ,-1.7004845873760947e-06 ,      0.0 ,      0.0 ,      0.0 ,3.1655486124582835e-06  ,-2.3865016614766538e-05 ,      0.0 ,-2.069946680206131e-05  ,1.5254597543950737e-05 ,0.6371091678942951   ,0.9999548002293427      ,0.01043180403396615     ,-0.03392505863481869    ,2.4598740380488785e-06 ,0.032202496280052735   ,0.0 ,-81.73093216560744    ,-81.73093216560744      ,        0.0 ,        0.0 , 0.0
 0.0 ,0.0 ,           0.0 ,            0.0 ,            0.0 ,            0.0 ,              0.0 ,                   0.0 ,1173.0 ,113.281  ,-26.756   ,           0.0 ,           0.0 ,       0.0 ,-81.67631      ,-18.58836   ,0.001895168      ,0.0001007309     ,                 0.0 ,             0.0 ,             0.0 ,                 0.0 ,                 0.0 ,        0.0 ,3.499719074163907      ,            0.0 ,            0.0 ,            0.0 ,              0.0 ,                   0.0 ,  0.0 ,0.0 ,1073.9784923861107   ,1.0                ,0.0 ,-198.11898473003566 ,-399.1529509798773  ,-1.0163348936804524     ,-199.11400575328423 ,          0.0 ,          0.0 ,-198.1137341263849  ,-399.158201583528   ,-199.11400575328423 ,-796.385891444074   ,115.78544940953162   ,265.4619804719938   ,200.54630713294512   ,-280.45801869428396   ,-481.4920349632487  ,-1.0163348936804524     ,-281.45298975459457 ,          0.0 ,          0.0 ,-280.4527680996027   ,-481.4972355477763  ,-281.45298975459457 ,-1043.4028934199123 ,115.78544940953162   ,347.80106446433473   ,200.54630713294512   ,1.886277249969555e-06   ,-1.8243933055449016e-05 ,-1.7099245527035257e-06 ,      0.0 ,      0.0 ,      0.0 ,2.8322379958332585e-06  ,-1.9189893801784876e-05 ,      0.0 ,-1.635765480651347e-05  ,1.28281076516306e-05   ,0.9999675775419338   ,0.004826857575299804    ,-0.03436130234420556    ,-3.7770236248742974e-06 ,0.034688056902299966   ,-82.33070845555244     ,0.0 ,-0.00834149691797818  ,-0.00834149691797818    ,        0.0 ,        0.0 , 0.0
 0.0 ,0.0 ,           0.0 ,            0.0 ,            0.0 ,            0.0 ,              0.0 ,                   0.0 ,1174.0 ,111.311  ,-26.77029 ,           0.0 ,           0.0 ,       0.0 ,-81.92993      ,-18.5773    ,0.0027011        ,8.007694e-05     ,                 0.0 ,             0.0 ,             0.0 ,                 0.0 ,                 0.0 ,        0.0 ,3.1663514950738767     ,            0.0 ,            0.0 ,            0.0 ,              0.0 ,                   0.0 ,  0.0 ,0.0 ,1072.458378279226    ,1.0                ,0.0 ,-198.8471362138029  ,-400.39160369093906 ,-1.0040701061210922     ,-199.47627849235892 ,          0.0 ,          0.0 ,-198.84197044635584 ,-400.39676945838613 ,-199.47627849235892 ,-798.7150183971008  ,116.18509050252733   ,266.2383505882655   ,201.23850353570367   ,-279.5687334725248    ,-481.1132010986009  ,-1.0040701061210922     ,-280.19782579977914 ,          0.0 ,          0.0 ,-279.5635678540177   ,-481.118366717108   ,-280.19782579977914 ,-1040.8796771034508 ,116.18509050252733   ,346.95996457953345   ,201.23850353570367   ,-4.268907505611439e-06  ,-3.4308962869514614e-05 ,3.991597369562575e-06   ,      0.0 ,      0.0 ,      0.0 ,-4.033667371307787e-06  ,-3.4544200007827927e-05 ,      0.0 ,-3.8577866873149666e-05 ,1.8890680169459164e-05 ,0.9384308913569993   ,0.1665165578464392      ,-0.0135632701391243     ,-0.003303850685422275   ,0.01176223144254231    ,-71.8120100896504      ,0.0 ,-8.905701619757336    ,-8.905701619757336      ,        0.0 ,        0.0 , 0.0
 0.0 ,0.0 ,           0.0 ,            0.0 ,            0.0 ,            0.0 ,              0.0 ,                   0.0 ,1175.0 ,109.3322 ,-26.78887 ,           0.0 ,           0.0 ,       0.0 ,-82.16359      ,-18.57251   ,0.00338955       ,5.624186e-05     ,                 0.0 ,             0.0 ,             0.0 ,                 0.0 ,                 0.0 ,        0.0 ,1.8325644803901882     ,            0.0 ,            0.0 ,            0.0 ,              0.0 ,                   0.0 ,  0.0 ,0.0 ,1060.365800250308    ,1.0                ,0.0 ,-198.80712506748173 ,-400.18340861730275 ,-1.2156045689085335     ,-199.39898443580347 ,          0.0 ,          0.0 ,-198.79958321773853 ,-400.1909504670459  ,-199.39898443580347 ,-798.3895181205879  ,116.10085128008      ,266.1298226774249   ,201.09259436702968   ,-279.78488320946013   ,-481.16121663668406 ,-1.2156045689085335     ,-280.3767758882593  ,          0.0 ,          0.0 ,-279.77740801495565  ,-481.1686918311886  ,-280.3767758882593  ,-1041.3229095009856 ,116.10085128008      ,347.107647474642     ,201.09259436702968   ,-4.6065506019009685e-06 ,-3.4322726994109655e-05 ,3.6135252306497383e-06  ,      0.0 ,      0.0 ,      0.0 ,-3.9469926821173505e-06 ,-3.498228141546208e-05  ,      0.0 ,-3.8929273076199565e-05 ,1.93367050526809e-05   ,1.0                  ,-0.0011193056880213076  ,-0.012072947031750507   ,0.0                     ,0.01278218821617481    ,-80.97780148726041     ,0.0 ,0.0                   ,0.0                     ,        0.0 ,        0.0 , 0.0
 0.0 ,0.0 ,           0.0 ,            0.0 ,            0.0 ,            0.0 ,              0.0 ,                   0.0 ,1176.0 ,107.342  ,-26.81506 ,           0.0 ,           0.0 ,       0.0 ,-82.43422      ,-18.57164   ,0.004088915      ,6.376524e-05     ,                 0.0 ,             0.0 ,             0.0 ,                 0.0 ,                 0.0 ,        0.0 ,2.510882480019774      ,            0.0 ,            0.0 ,            0.0 ,              0.0 ,                   0.0 ,  0.0 ,0.0 ,1053.6283167917115   ,1.0                ,0.0 ,-198.9782282018033  ,-400.37353059145494 ,-1.4289180551156395     ,-199.44388955600718 ,          0.0 ,          0.0 ,-198.96803528235694 ,-400.38374860831476 ,-199.44388955600718 ,-798.7956483492654  ,116.15033022290484   ,266.26518278308845  ,201.17827514523276   ,-279.71500792074823   ,-481.11025939007425 ,-1.4289180551156395     ,-280.1806183546265  ,          0.0 ,          0.0 ,-279.70476408097625  ,-481.12050322984624 ,-280.1806183546265  ,-1041.0058103732085 ,116.15033022290484   ,347.0019870418706    ,201.17827514523276   ,-4.165600546802002e-06  ,-4.151748274716547e-05  ,4.2524236881304775e-06  ,      0.0 ,      0.0 ,      0.0 ,-4.032324467518561e-06  ,-4.165075634458637e-05  ,      0.0 ,-4.568308031573243e-05  ,2.3012045130017713e-05 ,1.0                  ,-0.0029166909702047477  ,-0.007475290590544262   ,0.0                     ,0.008228405750999717   ,-80.73674158176789     ,0.0 ,0.0                   ,0.0                     ,        0.0 ,        0.0 , 0.0
 0.0 ,0.0 ,           0.0 ,            0.0 ,            0.0 ,            0.0 ,              0.0 ,                   0.0 ,1177.0 ,105.3355 ,-26.85631 ,           0.0 ,           0.0 ,       0.0 ,-82.8315       ,-18.57316   ,0.005103822      ,4.711515e-05     ,                 0.0 ,             0.0 ,             0.0 ,                 0.0 ,                 0.0 ,        0.0 ,1.994903341014495      ,            0.0 ,            0.0 ,            0.0 ,              0.0 ,                   0.0 ,  0.0 ,0.0 ,1077.7453077153946   ,1.0                ,0.0 ,-198.48302433379143 ,-399.26661692352246 ,-1.786245539711821      ,-199.12302012672956 ,          0.0 ,          0.0 ,-198.4668283653581  ,-399.2828621814833  ,-199.12302012672956 ,-796.8726613840435  ,115.75228308842563   ,265.62418712801446  ,200.48890907414952   ,-280.52510659607276   ,-481.3086494329187  ,-1.786245539711821      ,-281.1650526361258  ,          0.0 ,          0.0 ,-280.5088608747544   ,-481.3249444437647  ,-281.1650526361258  ,-1042.998758896796  ,115.75228308842563   ,347.66626939029584   ,200.48890907414952   ,-9.633349909972365e-07  ,-2.2277342362023555e-05 ,2.198977329354467e-06   ,      0.0 ,      0.0 ,      0.0 ,-9.066459006212231e-07  ,-2.2334031428459885e-05 ,      0.0 ,-2.324067732908111e-05  ,1.2641218909659944e-05 ,0.8193351710375811   ,0.495612819278234       ,-0.003734629142349486   ,-0.0042686045255126695  ,0.004184308082790606   ,-35.894735256691355    ,0.0 ,-46.14305736131238    ,-46.14305736131238      ,        0.0 ,        0.0 , 0.0
 0.0 ,0.0 ,           0.0 ,            0.0 ,            0.0 ,            0.0 ,              0.0 ,                   0.0 ,1178.0 ,103.305  ,-26.92506 ,           0.0 ,           0.0 ,       0.0 ,-83.48888      ,-18.57617   ,0.006842792      ,8.158162e-05     ,                 0.0 ,             0.0 ,             0.0 ,                 0.0 ,                 0.0 ,        0.0 ,2.0168510415992458     ,            0.0 ,            0.0 ,            0.0 ,              0.0 ,                   0.0 ,  0.0 ,0.0 ,1078.998338164663    ,1.0                ,0.0 ,-198.70614012191635 ,-399.28224408737344 ,-2.203804007783463      ,-199.19065519539112 ,          0.0 ,          0.0 ,-198.68180775246287 ,-399.30662603555095 ,-199.19065519539112 ,-797.1790394046809  ,115.68431577528956   ,265.72632980332446  ,200.37113844518268   ,-281.351841026194     ,-481.9279449916511  ,-2.203804007783463      ,-281.83635651565237 ,          0.0 ,          0.0 ,-281.3275086567405   ,-481.9523269398286  ,-281.83635651565237 ,-1045.1159450188143 ,115.68431577528956   ,348.37203112358566   ,200.37113844518268   ,-9.07414844113784e-07   ,-2.2678524653833977e-05 ,9.849273406149592e-07   ,      0.0 ,      0.0 ,      0.0 ,-8.962589343830378e-07  ,-2.2689678586232123e-05 ,      0.0 ,-2.3585939511259235e-05 ,1.284899467522096e-05  ,0.8200234313144282   ,0.49395851099502125     ,-0.002072663915789542   ,-0.004252342860476076   ,0.002691456915813454   ,-36.674181619346214    ,0.0 ,-45.96727088634399    ,-45.96727088634399      ,        0.0 ,        0.0 , 0.0
 0.0 ,0.0 ,           0.0 ,            0.0 ,            0.0 ,            0.0 ,              0.0 ,                   0.0 ,1179.0 ,101.2394 ,-27.04215 ,           0.0 ,           0.0 ,       0.0 ,-84.62035      ,-18.58012   ,0.008508096      ,0.0001410777     ,                 0.0 ,             0.0 ,             0.0 ,                 0.0 ,                 0.0 ,        0.0 ,3.500531166185784      ,            0.0 ,            0.0 ,            0.0 ,              0.0 ,                   0.0 ,  0.0 ,0.0 ,1080.0657562966262   ,1.0                ,0.0 ,-199.01258642802446 ,-398.71816560950623 ,-2.818548320105609      ,-199.2302309070624  ,          0.0 ,          0.0 ,-198.97175470786075 ,-398.7589965968683  ,-199.2302309070624  ,-796.9610328914764  ,115.27268462812208   ,265.6536778393483   ,199.6581280300468    ,-283.65858708472734   ,-483.3641669990107  ,-2.818548320105609      ,-283.87628161688195 ,          0.0 ,          0.0 ,-283.61775609736526  ,-483.4049979863728  ,-283.87628161688195 ,-1050.899080316257  ,115.27268462812208   ,350.2997285491678    ,199.6581280300468    ,-7.202691437159104e-07  ,-2.4414050607812077e-05 ,-8.098192794226281e-07  ,      0.0 ,      0.0 ,      0.0 ,-5.804622971283834e-07  ,-2.455386041675134e-05  ,      0.0 ,-2.51343216001473e-05   ,1.4011676374279512e-05 ,1.0                  ,-0.005162843183870552   ,-0.00547893567607329    ,0.0                     ,0.007590379975141499   ,-84.64602089779005     ,0.0 ,0.0                   ,0.0                     ,        0.0 ,        0.0 , 0.0
 0.0 ,0.0 ,           0.0 ,            0.0 ,            0.0 ,            0.0 ,              0.0 ,                   0.0 ,1180.0 ,99.12018 ,-27.23856 ,           0.0 ,           0.0 ,       0.0 ,-86.53868      ,-18.58469   ,0.008580597      ,-0.0005177198    ,                 0.0 ,             0.0 ,             0.0 ,                 0.0 ,                 0.0 ,        0.0 ,2.4645622678533394     ,            0.0 ,            0.0 ,            0.0 ,              0.0 ,                   0.0 ,  0.0 ,0.0 ,1081.3262807763604   ,1.0                ,0.0 ,-200.24635560408785 ,-401.049322873081   ,-3.4918822348057983     ,-200.21656228262913 ,          0.0 ,          0.0 ,-200.18481008476027 ,-401.1108195736664  ,-200.21656228262913 ,-801.512240759798   ,115.99548007981835   ,267.1707464317452   ,200.9101355868153    ,-284.9615210492519    ,-485.7645853891202  ,-3.4918822348057983     ,-284.93177654653545 ,          0.0 ,          0.0 ,-284.90002288410415  ,-485.8260338375727  ,-284.93177654653545 ,-1055.6579397891494 ,115.99548007981835   ,351.88596069565153   ,200.9101355868153    ,-2.569830671490904e-06  ,-4.466473367840648e-05  ,1.7293020127844417e-06  ,      0.0 ,      0.0 ,      0.0 ,-2.5294812901098362e-06 ,-4.47050846684534e-05   ,      0.0 ,-4.72345629236059e-05   ,2.5115603317923417e-05 ,1.0                  ,-0.0025979478326497987  ,-0.002362463206352805   ,0.0                     ,0.0035460493128572465  ,-84.71520444349696     ,0.0 ,0.0                   ,0.0                     ,        0.0 ,        0.0 , 0.0
 0.0 ,0.0 ,           0.0 ,            0.0 ,            0.0 ,            0.0 ,              0.0 ,                   0.0 ,1181.0 ,96.92639 ,-27.54952 ,           0.0 ,           0.0 ,       0.0 ,-89.59856      ,-18.58966   ,0.01516134       ,-0.0002254068    ,                 0.0 ,             0.0 ,             0.0 ,                 0.0 ,                 0.0 ,        0.0 ,2.065537072413032      ,            0.0 ,            0.0 ,            0.0 ,              0.0 ,                   0.0 ,  0.0 ,0.0 ,1083.2070634357362   ,1.0                ,0.0 ,-200.99842446679463 ,-400.8251031118908  ,-4.38928008238932       ,-200.85404459769347 ,          0.0 ,          0.0 ,-200.9012061180947  ,-400.92232146059075 ,-200.85404459769347 ,-802.6776211053991  ,115.49594720980087   ,267.55917370179964  ,200.04487671074438   ,-290.30943620835325   ,-490.13606957958086 ,-4.38928008238932       ,-290.1650592378078  ,          0.0 ,          0.0 ,-290.2121696872291   ,-490.23333610070506 ,-290.1650592378078  ,-1070.6108907663165 ,115.49594720980087   ,356.870188341914     ,200.04487671074438   ,-3.297639656973193e-06  ,-2.6277335496417237e-05 ,5.5514635937726225e-08  ,      0.0 ,      0.0 ,      0.0 ,-3.222278897995914e-06  ,-2.6352700656449768e-05 ,      0.0 ,-2.9574977845579524e-05 ,1.4378614553298936e-05 ,1.0                  ,-0.004390296183616551   ,-0.0027599043141150487  ,0.0                     ,0.005205950041054824   ,-89.31099514416584     ,0.0 ,0.0                   ,0.0                     ,        0.0 ,        0.0 , 0.0
 0.0 ,0.0 ,           0.0 ,            0.0 ,            0.0 ,            0.0 ,              0.0 ,                   0.0 ,1182.0 ,94.6131  ,-27.94079 ,           0.0 ,           0.0 ,       0.0 ,-93.46047      ,-18.59474   ,0.03483837       ,-0.0001670305    ,                 0.0 ,             0.0 ,             0.0 ,                 0.0 ,                 0.0 ,        0.0 ,3.451735811532027      ,            0.0 ,            0.0 ,            0.0 ,              0.0 ,                   0.0 ,  0.0 ,0.0 ,1084.5331786682013   ,1.0                ,0.0 ,-202.86993863501328 ,-401.5781155484014  ,-5.046312624595224      ,-201.63466377319236 ,          0.0 ,          0.0 ,-202.73292765369823 ,-401.7151284409565  ,-201.63466377319236 ,-806.0827689605458  ,115.20176941742253   ,268.69422362392856  ,199.53527940804304   ,-296.12954617923845   ,-494.8377739999279  ,-5.046312624595224      ,-294.8943694061775  ,          0.0 ,          0.0 ,-295.9925351979234   ,-494.97483407394157 ,-294.8943694061775  ,-1085.861552346635  ,115.20176941742253   ,361.9538801642151    ,199.53527940804304   ,-3.5187900510195018e-06 ,-2.6601373564020522e-05 ,-1.9537176707703616e-06 ,      0.0 ,      0.0 ,      0.0 ,-3.4417413557070317e-06 ,-2.667842265276523e-05  ,      0.0 ,-3.0120167533758553e-05 ,1.4533355971013714e-05 ,0.8157739043595467   ,0.4897334150454355      ,-0.0039026366179684717  ,-0.0013194016237537821  ,0.0014288579011163646  ,-52.097785505955805    ,0.0 ,-41.15849872479897    ,-41.15849872479897      ,        0.0 ,        0.0 , 0.0
 0.0 ,0.0 ,           0.0 ,            0.0 ,            0.0 ,            0.0 ,              0.0 ,                   0.0 ,1183.0 ,92.09188 ,-28.13702 ,           0.0 ,           0.0 ,       0.0 ,-95.37542      ,-18.59948   ,0.07214513       ,-0.0004706852    ,                 0.0 ,             0.0 ,             0.0 ,                 0.0 ,                 0.0 ,        0.0 ,2.5032257817698063     ,            0.0 ,            0.0 ,            0.0 ,              0.0 ,                   0.0 ,  0.0 ,0.0 ,1062.61093512754     ,0.9999999999999999 ,0.0 ,-205.68561476862632 ,-400.22101278807827 ,-3.9008585857313567     ,-201.86512431905908 ,          0.0 ,          0.0 ,-205.5349134190495  ,-400.37170562495896 ,-201.86512431905908 ,-807.7718185243566  ,113.5713060073301    ,269.2572700219605   ,196.7112018184015    ,-301.5464382471331    ,-496.0818611052959  ,-3.9008585857313567     ,-297.7260229588549  ,          0.0 ,          0.0 ,-301.39577024896323  ,-496.2326042647548  ,-297.7260229588549  ,-1095.3546635302305 ,113.5713060073301    ,365.11809350046724   ,196.7112018184015    ,-3.3761936461163467e-06 ,-1.8597294092888827e-05 ,-1.971258528267794e-07  ,      0.0 ,      0.0 ,      0.0 ,-3.2927717299006233e-06 ,-1.8680714349070186e-05 ,      0.0 ,-2.1973486320364148e-05 ,1.0006733474273958e-05 ,0.7165845963881619   ,0.7511492443038028      ,-0.004854621801625098   ,-0.0017532125100779379  ,0.0004885911049203967  ,-32.50196913843055     ,0.0 ,-63.353850431509095   ,-63.353850431509095     ,        0.0 ,        0.0 , 0.0
 0.0 ,0.0 ,           0.0 ,            0.0 ,            0.0 ,            0.0 ,              0.0 ,                   0.0 ,1184.0 ,89.29841 ,-28.22906 ,           0.0 ,           0.0 ,       0.0 ,-96.24504      ,-18.60456   ,0.07725892       ,-0.01895086      ,                 0.0 ,             0.0 ,             0.0 ,                 0.0 ,                 0.0 ,        0.0 ,1.1788983798350638     ,            0.0 ,            0.0 ,            0.0 ,              0.0 ,                   0.0 ,  0.0 ,0.0 ,1065.1123981439705   ,1.0                ,0.0 ,-210.52346432488565 ,-397.3023223168156  ,0.3162774128070892      ,-201.23044571627605 ,          0.0 ,          0.0 ,-210.49669505410895 ,-397.3291085263846  ,-201.23044571627605 ,-809.0562582416885  ,110.64563476780029   ,269.68542239553585  ,191.64383545720983   ,-305.0444452127712    ,-491.82332908841227 ,0.3162774128070892      ,-295.75143554908055 ,          0.0 ,          0.0 ,-305.0177500582832   ,-491.850098359189   ,-295.75143554908055 ,-1092.619244705757  ,110.64563476780029   ,364.20640328342137   ,191.64383545720983   ,-5.25690983153395e-06   ,-4.2487834506332236e-05 ,3.846746950473544e-06   ,      0.0 ,      0.0 ,      0.0 ,-5.148024836720297e-06  ,-4.259672407238361e-05  ,      0.0 ,-4.77447486315145e-05   ,2.3259230937310764e-05 ,0.7161356046829457   ,0.740679734389891       ,-0.002192668239187616   ,-0.0004715215566948273  ,0.0005091468368188288  ,-33.8725202377884      ,0.0 ,-60.64639395743634    ,-60.64639395743634      ,        0.0 ,        0.0 , 0.0
 0.0 ,0.0 ,           0.0 ,            0.0 ,            0.0 ,            0.0 ,              0.0 ,                   0.0 ,1185.0 ,69.95078 ,-28.53403 ,           0.0 ,           0.0 ,       0.0 ,-98.92402      ,-18.64163   ,-0.0751939       ,-0.01582009      ,                 0.0 ,             0.0 ,             0.0 ,                 0.0 ,                 0.0 ,        0.0 ,1.1406846676992617     ,            0.0 ,            0.0 ,            0.0 ,              0.0 ,                   0.0 ,  0.0 ,0.0 ,1100.9440824643093   ,1.0                ,0.0 ,-211.14932629405962 ,-406.6341383954365  ,-0.01586108257575969    ,-204.86622673568803 ,          0.0 ,          0.0 ,-210.8019396666792  ,-406.9814790195959  ,-204.86622673568803 ,-822.6496454219632  ,115.02981779612091   ,274.2165304750614   ,199.23749404427085   ,-309.59845645384655   ,-505.0832624803146  ,-0.01586108257575969    ,-303.31535689547496 ,          0.0 ,          0.0 ,-309.2511097547783   ,-505.430649107695   ,-303.31535689547496 ,-1117.997054086573  ,115.02981779612091   ,372.66566063484834   ,199.23749404427085   ,-2.229665075047101e-06  ,-2.091713583058147e-05  ,1.0035294782938489e-06  ,      0.0 ,      0.0 ,      0.0 ,-2.2160636260420935e-06 ,-2.093073829877297e-05  ,      0.0 ,-2.314680096637766e-05  ,1.1500107880582043e-05 ,0.8049692320947746   ,0.5190248098218697      ,-0.0012532030431371163  ,-7.756811654907437e-05  ,0.0017566183206648095  ,-40.531078170138535    ,0.0 ,-57.916808763411375   ,-57.916808763411375     ,        0.0 ,        0.0 , 0.0
 0.0 ,0.0 ,           0.0 ,            0.0 ,            0.0 ,            0.0 ,              0.0 ,                   0.0 ,1186.0 ,67.04075 ,-28.42087 ,           0.0 ,           0.0 ,       0.0 ,-97.73562      ,-18.64731   ,-0.06824545      ,0.001555681      ,                 0.0 ,             0.0 ,             0.0 ,                 0.0 ,                 0.0 ,        0.0 ,1.7127808665197652     ,            0.0 ,            0.0 ,            0.0 ,              0.0 ,                   0.0 ,  0.0 ,0.0 ,1092.6605582578932   ,1.0                ,0.0 ,-205.29746156648133 ,-405.23526441220883 ,6.92525384949623        ,-203.1448994230321  ,          0.0 ,          0.0 ,-205.04096175966055 ,-405.4917642190297  ,-203.1448994230321  ,-813.6776541236355  ,116.28178719521279   ,271.22585328524826  ,201.40596698727947   ,-301.68856401743994   ,-501.6263668631674  ,6.92525384949623        ,-299.5360018739907  ,          0.0 ,          0.0 ,-301.4320642106191   ,-501.8828666699882  ,-299.5360018739907  ,-1102.8506624071715 ,116.28178719521279   ,367.61695573620693   ,201.40596698727947   ,-4.0464473761060644e-06 ,-4.3249005678399623e-05 ,1.802977740601164e-06   ,      0.0 ,      0.0 ,      0.0 ,-4.024955182016554e-06  ,-4.327050010238717e-05  ,      0.0 ,-4.72954523660389e-05   ,2.3906977753066924e-05 ,0.8741181703377968   ,0.34213775853975115     ,-0.0008577732956477695  ,-6.511465115054299e-06  ,0.0024026454782308127  ,-55.43795241610527     ,0.0 ,-40.952315427537776   ,-40.952315427537776     ,        0.0 ,        0.0 , 0.0
 0.0 ,0.0 ,           0.0 ,            0.0 ,            0.0 ,            0.0 ,              0.0 ,                   0.0 ,1187.0 ,64.45942 ,-27.99249 ,           0.0 ,           0.0 ,       0.0 ,-93.40147      ,-18.65234   ,-0.02953063      ,-0.002821192     ,                 0.0 ,             0.0 ,             0.0 ,                 0.0 ,                 0.0 ,        0.0 ,1.7408188853983624     ,            0.0 ,            0.0 ,            0.0 ,              0.0 ,                   0.0 ,  0.0 ,0.0 ,1087.8315970012854   ,1.0                ,0.0 ,-201.9845566686474  ,-404.5277122370876  ,5.78887078672131        ,-201.89642721982872 ,          0.0 ,          0.0 ,-201.8119410295944  ,-404.70031343795847 ,-201.89642721982872 ,-808.4086702074521  ,117.1133283821559    ,269.46956537518787  ,202.84626742146546   ,-294.0334639843241    ,-496.57661955276427 ,5.78887078672131        ,-293.9453489736875  ,          0.0 ,          0.0 ,-293.86082242715963  ,-496.7492351918173  ,-293.9453489736875  ,-1084.5557625639249 ,117.1133283821559    ,361.51847269086466   ,202.84626742146546   ,-1.380034770240076e-06  ,-4.575374033362368e-05  ,8.54302701349572e-07    ,      0.0 ,      0.0 ,      0.0 ,-1.3758268447726207e-06 ,-4.575794931472537e-05  ,      0.0 ,-4.713376847784416e-05  ,2.6044444491157494e-05 ,0.7803436208869244   ,0.5953494857240375      ,-0.002192236340456891   ,-1.758406808649274e-05  ,0.0010875990793892255  ,-42.95250423661896     ,0.0 ,-49.09423188199229    ,-49.09423188199229      ,        0.0 ,        0.0 , 0.0
 0.0 ,0.0 ,           0.0 ,            0.0 ,            0.0 ,            0.0 ,              0.0 ,                   0.0 ,1188.0 ,62.09924 ,-27.64923 ,           0.0 ,           0.0 ,       0.0 ,-89.92273      ,-18.65696   ,-0.0164454       ,-0.0002437892    ,                 0.0 ,             0.0 ,             0.0 ,                 0.0 ,                 0.0 ,        0.0 ,2.637620478923197      ,            0.0 ,            0.0 ,            0.0 ,              0.0 ,                   0.0 ,  0.0 ,0.0 ,1093.8810688119254   ,1.0                ,0.0 ,-199.942129868253   ,-403.1716968497432  ,4.6271268038413         ,-200.47632029607436 ,          0.0 ,          0.0 ,-199.82677242531588 ,-403.2869861737043  ,-200.47632029607436 ,-803.5901470140705  ,117.2807620011123    ,267.8633802028451   ,203.13623752455575   ,-288.4912882671104    ,-491.72085524860057 ,4.6271268038413         ,-289.02554681390774 ,          0.0 ,          0.0 ,-288.3759308241732   ,-491.8362126915377  ,-289.02554681390774 ,-1069.2378161381475 ,117.2807620011123    ,356.41253860170247   ,203.13623752455575   ,2.714964786956302e-06   ,-4.810339013447116e-05  ,2.459271744659358e-07   ,      0.0 ,      0.0 ,      0.0 ,2.7225798143771307e-06  ,-4.811100262856575e-05  ,      0.0 ,-4.5388419897263505e-05 ,2.8596042166357573e-05 ,0.8858284987912886   ,0.3163155352313226      ,-0.0007968972664454746  ,-6.737714302638926e-06  ,0.00249473624619452    ,-53.93116153517799     ,0.0 ,-34.61725336877443    ,-34.61725336877443      ,        0.0 ,        0.0 , 0.0
 0.0 ,0.0 ,           0.0 ,            0.0 ,            0.0 ,            0.0 ,              0.0 ,                   0.0 ,1189.0 ,59.9156  ,-27.35482 ,           0.0 ,           0.0 ,       0.0 ,-86.93572      ,-18.66125   ,-0.004987949     ,-0.0001792686    ,                 0.0 ,             0.0 ,             0.0 ,                 0.0 ,                 0.0 ,        0.0 ,3.5008129547181657     ,            0.0 ,            0.0 ,            0.0 ,              0.0 ,                   0.0 ,  0.0 ,0.0 ,1114.4818129562595   ,1.0                ,0.0 ,-198.6686867960192  ,-401.56438481460907 ,3.0878786399579328      ,-199.43658286735183 ,          0.0 ,          0.0 ,-198.61139554066693 ,-401.6216511106091  ,-199.43658286735183 ,-799.6696544779801  ,116.97052527762692   ,266.55657650620924  ,202.598953091885     ,-283.89858850474457   ,-486.7943092586842  ,3.0878786399579328      ,-284.66650953542955 ,          0.0 ,          0.0 ,-283.84129724939237  ,-486.8516005140365  ,-284.66650953542955 ,-1055.3593661211244 ,116.97052527762692   ,351.78647821493473   ,202.598953091885     ,2.0193719919718664e-06  ,-5.185801981314539e-05  ,-1.1455957101929554e-06 ,      0.0 ,      0.0 ,      0.0 ,2.0331438640240667e-06  ,-5.1871790004763e-05    ,      0.0 ,-4.9838646484170294e-05 ,3.0553525951449036e-05 ,0.7306705533306233   ,0.7494923972409531      ,-0.0018515880153685195  ,-1.8158215344543607e-05 ,0.0009140918490253289  ,-19.759260827759938    ,0.0 ,-65.46882014899869    ,-65.46882014899869      ,        0.0 ,        0.0 , 0.0
 0.0 ,0.0 ,           0.0 ,            0.0 ,            0.0 ,            0.0 ,              0.0 ,                   0.0 ,1190.0 ,57.89015 ,-27.01492 ,           0.0 ,           0.0 ,       0.0 ,-83.49704      ,-18.66522   ,0.0007038356     ,-0.0006369938    ,                 0.0 ,             0.0 ,             0.0 ,                 0.0 ,                 0.0 ,        0.0 ,2.0323005827218665     ,            0.0 ,            0.0 ,            0.0 ,              0.0 ,                   0.0 ,  0.0 ,0.0 ,1112.8826021045252   ,1.0                ,0.0 ,-196.93645135934005 ,-398.4034857639498  ,1.797025488810825       ,-197.93663560807218 ,          0.0 ,          0.0 ,-196.91829587076387 ,-398.421641252526   ,-197.93663560807218 ,-793.2765727313621  ,116.04516591382468   ,264.4255575771207   ,200.9961412898242    ,-279.4693374303777    ,-480.93642124513497 ,1.797025488810825       ,-280.4695216791098  ,          0.0 ,          0.0 ,-279.4511819418015   ,-480.95462592619657 ,-280.4695216791098  ,-1040.8755213805678 ,116.04516591382468   ,346.95844364815827   ,200.9961412898242    ,8.04205942951125e-07    ,-2.7824770344359557e-05 ,-7.281286318317048e-07  ,      0.0 ,      0.0 ,      0.0 ,8.088649674393118e-07   ,-2.7829427886543316e-05 ,      0.0 ,-2.702056246692354e-05  ,1.6305846690051692e-05 ,0.6400717026296091   ,1.0                     ,-0.0022242181506766804  ,-5.732873729342058e-05  ,0.0                    ,0.0022252820582678314  ,0.0 ,-82.53292061460849    ,-82.53292061460849      ,        0.0 ,        0.0 , 0.0
 0.0 ,0.0 ,           0.0 ,            0.0 ,            0.0 ,            0.0 ,              0.0 ,                   0.0 ,1191.0 ,55.94806 ,-26.80822 ,           0.0 ,           0.0 ,       0.0 ,-81.39184      ,-18.66903   ,0.005888065      ,-0.0008403865    ,                 0.0 ,             0.0 ,             0.0 ,                 0.0 ,                 0.0 ,        0.0 ,0.5169338955351852     ,            0.0 ,            0.0 ,            0.0 ,              0.0 ,                   0.0 ,  0.0 ,0.0 ,1110.4297394471278   ,1.0                ,0.0 ,-195.92807741182025 ,-396.06359029535156 ,0.662169145632973       ,-196.74194162704927 ,          0.0 ,          0.0 ,-195.92461420274833 ,-396.06705048680124 ,-196.74194162704927 ,-788.7336580099884  ,115.3171639186358    ,262.91125166412206  ,199.73515282481964   ,-276.2369881443469    ,-476.37250102787823 ,0.662169145632973       ,-277.05085235957597 ,          0.0 ,          0.0 ,-276.233524935275    ,-476.37600952593834 ,-277.05085235957597 ,-1029.660483803167  ,115.3171639186358    ,343.2201623966487    ,199.73515282481964   ,1.6418546703358384e-06  ,-2.9349965019455262e-05 ,-8.730769986107707e-07  ,      0.0 ,      0.0 ,      0.0 ,1.6480669848076235e-06  ,-2.9356181137459763e-05 ,      0.0 ,-2.770811275273157e-05  ,1.7444066170864914e-05 ,0.6497863160686947   ,0.9697585622734854      ,-0.002011045578910416   ,-5.361984077546586e-05  ,6.521787826234436e-05  ,-2.129947706368993     ,0.0 ,-78.17695634711876    ,-78.17695634711876      ,        0.0 ,        0.0 , 0.0
 0.0 ,0.0 ,           0.0 ,            0.0 ,            0.0 ,            0.0 ,              0.0 ,                   0.0 ,1192.0 ,54.04928 ,-26.76711 ,           0.0 ,           0.0 ,       0.0 ,-80.94325      ,-18.67279   ,0.009475442      ,-0.000161435     ,                 0.0 ,             0.0 ,             0.0 ,                 0.0 ,                 0.0 ,        0.0 ,1.9939852412520007     ,            0.0 ,            0.0 ,            0.0 ,              0.0 ,                   0.0 ,  0.0 ,0.0 ,1092.1123381811676   ,1.0                ,0.0 ,-195.99555748378648 ,-394.52468675207473 ,-0.14268429165970414    ,-196.17070117870549 ,          0.0 ,          0.0 ,-195.9944316882881  ,-394.5258125475731  ,-196.17070117870549 ,-786.6909970913819  ,114.57137190774222   ,262.23032496911424  ,198.4434026482117    ,-275.72856345442966   ,-474.2577182603876  ,-0.14268429165970414    ,-275.9037326870184  ,          0.0 ,          0.0 ,-275.7274148734162   ,-474.258844055886   ,-275.9037326870184  ,-1025.8900916163204 ,114.57137190774222   ,341.96333093975744   ,198.4434026482117    ,1.2929866641525003e-06  ,-4.477300418070411e-05  ,-1.963624281480594e-06  ,      0.0 ,      0.0 ,      0.0 ,1.3236023173262252e-06  ,-4.480362394280634e-05  ,      0.0 ,-4.34800194639345e-05   ,2.6261294325780583e-05 ,0.8128343780989425   ,0.5150057976378997      ,-0.002028203439192352   ,-1.4548471438703746e-05 ,0.0017623837570456924  ,-33.94641085658818     ,0.0 ,-45.78459022821295    ,-45.78459022821295      ,        0.0 ,        0.0 , 0.0
 0.0 ,0.0 ,           0.0 ,            0.0 ,            0.0 ,            0.0 ,              0.0 ,                   0.0 ,1193.0 ,52.17468 ,-26.79359 ,           0.0 ,           0.0 ,       0.0 ,-81.17094      ,-18.6765    ,0.008358359      ,0.0008112609     ,                 0.0 ,             0.0 ,             0.0 ,                 0.0 ,                 0.0 ,        0.0 ,2.127559055452821      ,            0.0 ,            0.0 ,            0.0 ,              0.0 ,                   0.0 ,  0.0 ,0.0 ,1091.369497722841    ,1.0                ,0.0 ,-196.14693790644694 ,-393.9931071601779  ,-0.36664195339752303    ,-196.05469061674114 ,          0.0 ,          0.0 ,-196.1457236121069  ,-393.99432145451794 ,-196.05469061674114 ,-786.1947356833659  ,114.25427071809708   ,262.064878561122    ,197.89415939228982   ,-276.1323967770473    ,-473.9785413320201  ,-0.36664195339752303    ,-276.040162243247   ,          0.0 ,          0.0 ,-276.13111993737084  ,-473.9797556263602  ,-276.040162243247   ,-1026.1511497498304 ,114.25427071809708   ,342.0503501876279    ,197.89415939228982   ,-2.0174967590943448e-07 ,-4.4069230919881796e-05 ,-1.7393245793087782e-06 ,      0.0 ,      0.0 ,      0.0 ,-1.8081060407414774e-07 ,-4.409017238637236e-05  ,      0.0 ,-4.4270979693251025e-05 ,2.5434854267788616e-05 ,0.9107843561944873   ,0.24397747622763227     ,-0.000923899535473062   ,-3.99859062495095e-06   ,0.0030101806665058153  ,-53.22126893137658     ,0.0 ,-26.76327790281412    ,-26.76327790281412      ,        0.0 ,        0.0 , 0.0
 0.0 ,0.0 ,           0.0 ,            0.0 ,            0.0 ,            0.0 ,              0.0 ,                   0.0 ,1194.0 ,50.31288 ,-26.8708  ,           0.0 ,           0.0 ,       0.0 ,-81.906        ,-18.68019   ,-0.0003252592    ,0.001375264      ,                 0.0 ,             0.0 ,             0.0 ,                 0.0 ,                 0.0 ,        0.0 ,2.6253939502644124     ,            0.0 ,            0.0 ,            0.0 ,              0.0 ,                   0.0 ,  0.0 ,0.0 ,1092.140911491334    ,1.0                ,0.0 ,-196.48412034423922 ,-393.6008702444454  ,0.08250473147292933     ,-196.1502133683444  ,          0.0 ,          0.0 ,-196.48355142846032 ,-393.6014391602243  ,-196.1502133683444  ,-786.235203957029   ,113.90243415320631   ,262.0783679856763   ,197.2848258928617    ,-277.68138299929933   ,-474.7981083070299  ,0.08250473147292933     ,-277.3475385627995  ,          0.0 ,          0.0 ,-277.6808012153911   ,-474.7986772228088  ,-277.3475385627995  ,-1029.82707905408   ,113.90243415320631   ,343.2756931801315    ,197.2848258928617    ,-3.4594687660489277e-06 ,-3.7627354915943854e-05 ,-1.319559063895769e-06  ,      0.0 ,      0.0 ,      0.0 ,-3.4423769325688635e-06 ,-3.764444929921143e-05  ,      0.0 ,-4.108682776287119e-05  ,2.0885357446359662e-05 ,0.9111682645409236   ,0.24188100436094576     ,-0.0009387452257711244  ,-3.981384087516249e-06  ,0.004043947332644848   ,-54.54826788753848     ,0.0 ,-26.64811148886902    ,-26.64811148886902      ,        0.0 ,        0.0 , 0.0
 0.0 ,0.0 ,           0.0 ,            0.0 ,            0.0 ,            0.0 ,              0.0 ,                   0.0 ,1195.0 ,48.45694 ,-27.00792 ,           0.0 ,           0.0 ,       0.0 ,-83.24029      ,-18.6839    ,-0.01005615      ,0.0007793888     ,                 0.0 ,             0.0 ,             0.0 ,                 0.0 ,                 0.0 ,        0.0 ,2.997710892422379      ,            0.0 ,            0.0 ,            0.0 ,              0.0 ,                   0.0 ,  0.0 ,0.0 ,1117.0814644657466   ,1.0                ,0.0 ,-196.94071436393529 ,-394.50185091909486 ,0.3572784820966466      ,-196.65659882936743 ,          0.0 ,          0.0 ,-196.940059627194   ,-394.50250565583616 ,-196.65659882936743 ,-788.0991641123976  ,114.14469144380001   ,262.6996880756177   ,197.70437564829604   ,-279.8032985605964    ,-477.36443500130065 ,0.3572784820966466      ,-279.51923285873113 ,          0.0 ,          0.0 ,-279.8026438238551   ,-477.3650898524973  ,-279.51923285873113 ,-1036.6867663237153 ,114.14469144380001   ,345.5623221049814    ,197.70437564829604   ,-3.039134708304063e-06  ,-3.387910583006164e-05  ,-1.1018496280807235e-06 ,      0.0 ,      0.0 ,      0.0 ,-3.0279355379410023e-06 ,-3.3890310337658975e-05 ,      0.0 ,-3.691824846791306e-05  ,1.8808151755821024e-05 ,0.8168181152812558   ,0.49882477817338255     ,-0.0028956540326420615  ,-1.9972457405476598e-05 ,0.002848345586944419   ,-36.25960872473854     ,0.0 ,-46.60012885080266    ,-46.60012885080266      ,        0.0 ,        0.0 , 0.0
 0.0 ,0.0 ,           0.0 ,            0.0 ,            0.0 ,            0.0 ,              0.0 ,                   0.0 ,1196.0 ,46.60385 ,-27.18844 ,           0.0 ,           0.0 ,       0.0 ,-85.00827      ,-18.68761   ,-0.01440961      ,-0.0003548752    ,                 0.0 ,             0.0 ,             0.0 ,                 0.0 ,                 0.0 ,        0.0 ,1.987696865398196      ,            0.0 ,            0.0 ,            0.0 ,              0.0 ,                   0.0 ,  0.0 ,0.0 ,1117.0666693080452   ,1.0                ,0.0 ,-197.26692778483692 ,-397.6042018698722  ,0.7452741132630036      ,-197.56420285544942 ,          0.0 ,          0.0 ,-197.26356124567923 ,-397.60756840902997 ,-197.56420285544942 ,-792.4353820657557  ,115.58214239625481   ,264.1451108936375   ,200.19405811082038   ,-281.0048329821278    ,-481.3421060076035  ,0.7452741132630036      ,-281.3021576083373  ,          0.0 ,          0.0 ,-281.0014664429701   ,-481.34547360632087 ,-281.3021576083373  ,-1043.6491478962407 ,115.58214239625481   ,347.8830160909284    ,200.19405811082038   ,1.4277432213015254e-06  ,-4.553418614712501e-05  ,-1.4150247908412172e-06 ,      0.0 ,      0.0 ,      0.0 ,1.4404442313235459e-06  ,-4.5546893845820305e-05 ,      0.0 ,-4.410645021412022e-05  ,2.6732369371714233e-05 ,0.6369665204735222   ,1.0                     ,-0.00393062599473409    ,-2.330675745247599e-05  ,0.0                    ,0.00393070042984101    ,0.0 ,-83.73791994093868    ,-83.73791994093868      ,        0.0 ,        0.0 , 0.0
 0.0 ,0.0 ,           0.0 ,            0.0 ,            0.0 ,            0.0 ,              0.0 ,                   0.0 ,1197.0 ,44.75226 ,-27.40149 ,           0.0 ,           0.0 ,       0.0 ,-87.10143      ,-18.69135   ,-0.01246182      ,-0.0007455247    ,                 0.0 ,             0.0 ,             0.0 ,                 0.0 ,                 0.0 ,        0.0 ,2.4840501654133504     ,            0.0 ,            0.0 ,            0.0 ,              0.0 ,                   0.0 ,  0.0 ,0.0 ,1117.936117266925    ,1.0                ,0.0 ,-197.89592850615725 ,-400.03591387084293 ,0.4668787464771469      ,-198.63163947199462 ,          0.0 ,          0.0 ,-197.89482319637344 ,-400.03701918062666 ,-198.63163947199462 ,-796.5634829972864  ,116.49488504954272   ,265.52114456629545  ,201.7750600048651    ,-283.9985698092182    ,-486.1385551739039  ,0.4668787464771469      ,-284.7343312217474  ,          0.0 ,          0.0 ,-283.9974644994345   ,-486.13970978208783 ,-284.7343312217474  ,-1054.8715102250958 ,116.49488504954272   ,351.6238351677565    ,201.7750600048651    ,1.3621448162055207e-06  ,-4.212724990867397e-05  ,-6.938850096458736e-07  ,      0.0 ,      0.0 ,      0.0 ,1.3670890179880447e-06  ,-4.213219418828783e-05  ,      0.0 ,-4.076510270921545e-05  ,2.4729225348587796e-05 ,0.8176105659409605   ,0.505205439111926       ,-0.002878866759263887   ,-1.2842052903837283e-05 ,0.0018105793833915337  ,-46.17076544964745     ,0.0 ,-39.92902050207367    ,-39.92902050207367      ,        0.0 ,        0.0 , 0.0
 0.0 ,0.0 ,           0.0 ,            0.0 ,            0.0 ,            0.0 ,              0.0 ,                   0.0 ,1198.0 ,42.90689 ,-27.65961 ,           0.0 ,           0.0 ,       0.0 ,-89.64485      ,-18.69512   ,-0.005369829     ,-0.0001559342    ,                 0.0 ,             0.0 ,             0.0 ,                 0.0 ,                 0.0 ,        0.0 ,1.0218241687830822     ,            0.0 ,            0.0 ,            0.0 ,              0.0 ,                   0.0 ,  0.0 ,0.0 ,1118.7260127589082   ,1.0                ,0.0 ,-198.55755045311003 ,-402.64501560623216 ,-0.13247751872231056    ,-199.90532082337734 ,          0.0 ,          0.0 ,-198.55654938000112 ,-402.64601667934096 ,-199.90532082337734 ,-801.1078377234578  ,117.44379400711367   ,267.03596242541056  ,203.4186467474336    ,-287.4825922034151    ,-491.5700573565373  ,-0.13247751872231056    ,-288.83036257368246 ,          0.0 ,          0.0 ,-287.48159113030624  ,-491.5710584296461  ,-288.83036257368246 ,-1067.88300580124   ,117.44379400711367   ,355.9610041757157    ,203.4186467474336    ,5.919627377434902e-07   ,-2.3251636120005125e-05 ,-7.741949317554874e-07  ,      0.0 ,      0.0 ,      0.0 ,5.983795090401739e-07   ,-2.3258051403644314e-05 ,      0.0 ,-2.2659673822335667e-05 ,1.3604075656929915e-05 ,0.6426681632443108   ,1.0                     ,-0.002863220434557279   ,-0.00019029395785646332 ,0.0                    ,0.00288023008068934    ,0.0 ,-88.92503671632527    ,-88.92503671632527      ,        0.0 ,        0.0 , 0.0
 0.0 ,0.0 ,           0.0 ,            0.0 ,            0.0 ,            0.0 ,              0.0 ,                   0.0 ,1199.0 ,41.06532 ,-28.00449 ,           0.0 ,           0.0 ,       0.0 ,-93.05524      ,-18.69897   ,-0.003100352     ,1.616334e-05     ,                 0.0 ,             0.0 ,             0.0 ,                 0.0 ,                 0.0 ,        0.0 ,1.0208269303453645     ,            0.0 ,            0.0 ,            0.0 ,              0.0 ,                   0.0 ,  0.0 ,0.0 ,1118.6527771620983   ,1.0                ,0.0 ,-200.1127990472234  ,-405.78342022454194 ,-0.8588268973943194     ,-201.48857855375599 ,          0.0 ,          0.0 ,-200.10871537017118 ,-405.7875012988991  ,-201.48857855375599 ,-807.3847978255213  ,118.35244226022655   ,269.12828139382657  ,204.99251084934303   ,-292.39841613361966   ,-498.06908574958976 ,-0.8588268973943194     ,-293.7742466814989  ,          0.0 ,          0.0 ,-292.394383497914    ,-498.0731209879905  ,-293.7742466814989  ,-1084.2414667835737 ,118.35244226022655   ,361.4139495215694    ,204.99251084934303   ,3.3790761474997013e-07  ,-2.364228681287574e-05  ,-1.452966277882459e-06  ,      0.0 ,      0.0 ,      0.0 ,3.5990350517179273e-07  ,-2.3664277896447735e-05 ,      0.0 ,-2.3304376252766257e-05 ,1.376765150375891e-05  ,0.8157640128652006   ,0.5138332550541159      ,-0.0010697113041304948  ,-0.0001814782678510777  ,0.0017802337874126303  ,-49.711117310497684    ,0.0 ,-42.57345139955934    ,-42.57345139955934      ,        0.0 ,        0.0 , 0.0
 0.0 ,0.0 ,           0.0 ,            0.0 ,            0.0 ,            0.0 ,              0.0 ,                   0.0 ,1200.0 ,39.2276  ,-28.51685 ,           0.0 ,           0.0 ,       0.0 ,-98.13864      ,-18.70298   ,-0.005753677     ,-0.001671766     ,                 0.0 ,             0.0 ,             0.0 ,                 0.0 ,                 0.0 ,        0.0 ,1.4968203289718502     ,            0.0 ,            0.0 ,            0.0 ,              0.0 ,                   0.0 ,  0.0 ,0.0 ,1122.7629811413576   ,1.0                ,0.0 ,-202.9295105004083  ,-411.50249923557317 ,-1.7262195690340945     ,-204.14937138346693 ,          0.0 ,          0.0 ,-202.91327597475959 ,-411.5187337612218  ,-204.14937138346693 ,-818.5813811194483  ,120.08315158541288   ,272.8604603731494   ,207.9902022164448    ,-299.25269568094706   ,-507.82578359496506 ,-1.7262195690340945     ,-300.4726557428588  ,          0.0 ,          0.0 ,-299.23651083733125  ,-507.84191894176064 ,-300.4726557428588  ,-1107.5511872445409 ,120.08315158541288   ,369.18369523572113   ,207.9902022164448    ,8.57994690116256e-07    ,-5.008413454639086e-05  ,-3.1589236452189246e-06 ,      0.0 ,      0.0 ,      0.0 ,9.069356533231793e-07   ,-5.013307061612416e-05  ,      0.0 ,-4.9226135871456724e-05 ,2.920975376398497e-05  ,0.8242017971528339   ,0.49312439392704        ,-0.0010811950919659703  ,-1.239636973067499e-06  ,0.0018438117421626478  ,-51.88717870554632     ,0.0 ,-44.434993250923746   ,-44.434993250923746     ,        0.0 ,        0.0 , 0.0
 0.0 ,0.0 ,           0.0 ,            0.0 ,            0.0 ,            0.0 ,              0.0 ,                   0.0 ,1201.0 ,37.39076 ,-29.24612 ,           0.0 ,           0.0 ,       0.0 ,-105.3883      ,-18.7073    ,-0.01137273      ,3.535576e-05     ,                 0.0 ,             0.0 ,             0.0 ,                 0.0 ,                 0.0 ,        0.0 ,1.2524035815773966     ,            0.0 ,            0.0 ,            0.0 ,              0.0 ,                   0.0 ,  0.0 ,0.0 ,1136.1880259771654   ,1.0                ,0.0 ,-206.4517878152602  ,-418.2009117982721  ,-2.416503472430854      ,-207.56716285978882 ,          0.0 ,          0.0 ,-206.42136032868405 ,-418.2313140444901  ,-207.56716285978882 ,-832.219837232963   ,121.95917203389203   ,277.40660399753494  ,211.23948218844018   ,-309.85648287103805   ,-521.6056228830834  ,-2.416503472430854      ,-310.9718739446001  ,          0.0 ,          0.0 ,-309.8260553844619   ,-521.636009100268   ,-310.9718739446001  ,-1142.4341525354978 ,121.95917203389203   ,380.8112990533128    ,211.23948218844018   ,6.522476893422904e-07   ,-5.093326277169751e-05  ,-3.502168978142867e-06  ,      0.0 ,      0.0 ,      0.0 ,7.14882163539142e-07    ,-5.0995895736379684e-05 ,      0.0 ,-5.0281015277775696e-05 ,2.9652075182011665e-05 ,0.8531468818332291   ,0.4114150349961986      ,-0.0012781755468194089  ,-2.2184858920357923e-06 ,0.0012788807301099619  ,-64.36793989475164     ,0.0 ,-39.03548311885463    ,-39.03548311885463      ,        0.0 ,        0.0 , 0.0
 0.0 ,0.0 ,           0.0 ,            0.0 ,            0.0 ,            0.0 ,              0.0 ,                   0.0 ,1202.0 ,35.38647 ,-29.54956 ,           0.0 ,           0.0 ,       0.0 ,-108.3764      ,-18.71192   ,0.002561135      ,0.0001375527     ,                 0.0 ,             0.0 ,             0.0 ,                 0.0 ,                 0.0 ,        0.0 ,2.0102973942441484     ,            0.0 ,            0.0 ,            0.0 ,              0.0 ,                   0.0 ,  0.0 ,0.0 ,1104.2950660614304   ,1.0                ,0.0 ,-207.69021526411314 ,-420.236467186264   ,-3.1947478803540528     ,-208.77865019018697 ,          0.0 ,          0.0 ,-207.63943330824293 ,-420.2871830843195  ,-208.77865019018697 ,-836.7052490967869  ,122.44475997734008   ,278.9017276796575   ,212.08049688101502   ,-314.5256750921675    ,-527.0719270143184  ,-3.1947478803540528     ,-315.6140925322789  ,          0.0 ,          0.0 ,-314.47489313629734  ,-527.1226254264116  ,-315.6140925322789  ,-1157.2114301745835 ,122.44475997734008   ,385.73718750771184   ,212.08049688101502   ,-7.11405213806984e-08   ,-4.538058331039444e-05  ,-4.428862851056548e-06  ,      0.0 ,      0.0 ,      0.0 ,4.538367850300143e-08   ,-4.549710700221144e-05  ,      0.0 ,-4.545172814498287e-05  ,2.6281641383092156e-05 ,0.7646587964476048   ,0.6592172025736605      ,-0.002430478150281957   ,-4.755473009204474e-06  ,0.001360945560210301   ,-42.331605102918644    ,0.0 ,-64.50142645176061    ,-64.50142645176061      ,        0.0 ,        0.0 , 0.0
 0.0 ,0.0 ,           0.0 ,            0.0 ,            0.0 ,            0.0 ,              0.0 ,                   0.0 ,1203.0 ,33.40208 ,-29.76282 ,           0.0 ,           0.0 ,       0.0 ,-110.4616      ,-18.71667   ,0.003922482      ,-0.0004196037    ,                 0.0 ,             0.0 ,             0.0 ,                 0.0 ,                 0.0 ,        0.0 ,2.2463581773146934     ,            0.0 ,            0.0 ,            0.0 ,              0.0 ,                   0.0 ,  0.0 ,0.0 ,1092.5941398931227   ,1.0                ,0.0 ,-208.7785387167552  ,-422.02266081552534 ,-3.710275556354824      ,-209.80675405817107 ,          0.0 ,          0.0 ,-208.71235002452974 ,-422.088797653637   ,-209.80675405817107 ,-840.6079263721556  ,122.87827293409985   ,280.2026087907185   ,212.83139710062346   ,-317.8127038209697    ,-531.0567777738535  ,-3.710275556354824      ,-318.84087101649925 ,          0.0 ,          0.0 ,-317.74651512874425  ,-531.1229392477829  ,-318.84087101649925 ,-1167.7103396989312 ,122.87827293409985   ,389.2367985307508    ,212.83139710062346   ,-4.4605490663722475e-07 ,-4.35043265732076e-05   ,-5.012563934300836e-06  ,      0.0 ,      0.0 ,      0.0 ,-2.943973006458052e-07  ,-4.365598223329396e-05  ,      0.0 ,-4.395038038975497e-05  ,2.5120333304206338e-05 ,0.643729737245255    ,1.0                     ,-0.004184697738632124   ,-7.760865105079192e-06  ,0.0                    ,0.004184704749889616   ,0.0 ,-109.03413621668271   ,-109.03413621668271     ,        0.0 ,        0.0 , 0.0
 0.0 ,0.0 ,           0.0 ,            0.0 ,            0.0 ,            0.0 ,              0.0 ,                   0.0 ,1204.0 ,31.46094 ,-29.94215 ,           0.0 ,           0.0 ,       0.0 ,-112.206       ,-18.72155   ,0.002856472      ,-4.611356e-05    ,                 0.0 ,             0.0 ,             0.0 ,                 0.0 ,                 0.0 ,        0.0 ,1.0289135126287219     ,            0.0 ,            0.0 ,            0.0 ,              0.0 ,                   0.0 ,  0.0 ,0.0 ,1126.097486019973    ,1.0                ,0.0 ,-209.47839612321795 ,-423.3434506730501  ,-4.305552317139895      ,-210.6888168364448  ,          0.0 ,          0.0 ,-209.39166557814835 ,-423.4301812181196  ,-210.6888168364448  ,-843.5106636327127  ,123.20243700852046   ,281.1701884920055   ,213.39286568712907   ,-320.86046011691315   ,-534.725415588397   ,-4.305552317139895      ,-322.07078083013994 ,          0.0 ,          0.0 ,-320.77372957184355  ,-534.8121461334666  ,-322.07078083013994 ,-1177.6568997678978 ,123.20243700852046   ,392.55225156404885   ,213.39286568712907   ,-2.977681839938235e-07  ,-2.335239182717106e-05  ,-2.5237699601186996e-06 ,      0.0 ,      0.0 ,      0.0 ,-2.285751041840005e-07  ,-2.3421582783756232e-05 ,      0.0 ,-2.365015843955706e-05  ,1.3456959556567699e-05 ,0.6438882397190965   ,1.0                     ,-0.00321784967266214    ,-0.0005862373162525064  ,0.0                    ,0.003340418555275578   ,0.0 ,-111.38203395577642   ,-111.38203395577642     ,        0.0 ,        0.0 , 0.0
 0.0 ,0.0 ,           0.0 ,            0.0 ,            0.0 ,            0.0 ,              0.0 ,                   0.0 ,1205.0 ,29.57202 ,-30.10311 ,           0.0 ,           0.0 ,       0.0 ,-113.765       ,-18.72661   ,0.006580773      ,-0.0001301014    ,                 0.0 ,             0.0 ,             0.0 ,                 0.0 ,                 0.0 ,        0.0 ,0.0                    ,            0.0 ,            0.0 ,            0.0 ,              0.0 ,                   0.0 ,  0.0 ,0.0 ,1125.6026370395866   ,1.0                ,0.0 ,-209.90543838763602 ,-423.6046010646022  ,-4.698211660549963      ,-211.14431676694477 ,          0.0 ,          0.0 ,-209.80179819908085 ,-423.7082412531574  ,-211.14431676694477 ,-844.6543541662693  ,123.11323138801185   ,281.55143571235743  ,213.23833084390174   ,-323.67169822231654   ,-537.3708118171719  ,-4.698211660549963      ,-324.9105275195145  ,          0.0 ,          0.0 ,-323.56805803376136  ,-537.4744520057271  ,-324.9105275195145  ,-1185.953480482373  ,123.11323138801185   ,395.31769554703794   ,213.23833084390174   ,0.0                     ,0.0                     ,0.0                     ,      0.0 ,      0.0 ,      0.0 ,0.0                     ,0.0                     ,      0.0 ,0.0                     ,0.0                    ,0.8255473554760706   ,0.4895038268506726      ,-0.0021631374639667954  ,-0.0005834262895410613  ,0.001561237772625396   ,-53.546264550636955    ,0.0 ,-60.21854722827209    ,-60.21854722827209      ,        0.0 ,        0.0 , 0.0
 0.0 ,0.0 ,           0.0 ,            0.0 ,            0.0 ,            0.0 ,              0.0 ,                   0.0 ,1206.0 ,27.74971 ,-30.26657 ,           0.0 ,           0.0 ,       0.0 ,-115.3468      ,-18.73189   ,0.009892315      ,0.0007694855     ,                 0.0 ,             0.0 ,             0.0 ,                 0.0 ,                 0.0 ,        0.0 ,0.5125788116958964     ,            0.0 ,            0.0 ,            0.0 ,              0.0 ,                   0.0 ,  0.0 ,0.0 ,1130.3552865364977   ,1.0                ,0.0 ,-211.29195011908917 ,-425.48698775903244 ,-5.068694291792742      ,-212.0459549924886  ,          0.0 ,          0.0 ,-211.17204430515147 ,-425.6068423150891  ,-212.0459549924886  ,-848.8248928706103  ,123.55265479112745   ,282.94164794431776  ,213.99939342943588   ,-325.58399145882845   ,-539.7790288032336  ,-5.068694291792742      ,-326.33804729457086 ,          0.0 ,          0.0 ,-325.4640856448907   ,-539.8989346171713  ,-326.33804729457086 ,-1191.7015191100522 ,123.55265479112745   ,397.23368928405705   ,213.99939342943588   ,-2.0102023667166996e-07 ,-2.4189009312766824e-05 ,-2.7557713143749072e-06 ,      0.0 ,      0.0 ,      0.0 ,-1.221330248467611e-07  ,-2.4267900317674938e-05 ,      0.0 ,-2.439003247113772e-05  ,1.3975953376547842e-05 ,0.9989495683194283   ,0.000582292679491881    ,-0.0008100859483259104  ,-3.5129846239062116e-06 ,0.0026077680039856086  ,-113.92948994964759    ,0.0 ,-0.3625939287948409   ,-0.3625939287948409     ,        0.0 ,        0.0 , 0.0
 0.0 ,0.0 ,           0.0 ,            0.0 ,            0.0 ,            0.0 ,              0.0 ,                   0.0 ,1207.0 ,26.00966 ,-30.52946 ,           0.0 ,           0.0 ,       0.0 ,-117.9186      ,-18.7376    ,0.004829001      ,-0.00131186      ,                 0.0 ,             0.0 ,             0.0 ,                 0.0 ,                 0.0 ,        0.0 ,2.5819413078662894     ,            0.0 ,            0.0 ,            0.0 ,              0.0 ,                   0.0 ,  0.0 ,0.0 ,1124.8530601492866   ,1.0                ,0.0 ,-213.67373368280886 ,-429.27825166118527 ,-5.501892368582828      ,-213.91193340235876 ,          0.0 ,          0.0 ,-213.53290722727428 ,-429.419078592028   ,-213.91193340235876 ,-856.8639664902842  ,124.53271968979763   ,285.62135549676134  ,215.696909582664     ,-329.5779266477679    ,-545.1824446261444  ,-5.501892368582828      ,-329.8161258920098  ,          0.0 ,          0.0 ,-329.43705244830215  ,-545.3232710816789  ,-329.8161258920098  ,-1204.5767185467002 ,124.53271968979763   ,401.52550071778927   ,215.696909582664     ,-1.289023847014042e-06  ,-4.675878767421595e-05  ,-6.357354743271987e-06  ,      0.0 ,      0.0 ,      0.0 ,-1.0613282221030032e-06 ,-4.698648440980853e-05  ,      0.0 ,-4.804781278322357e-05  ,2.682960663625187e-05  ,1.0                  ,-0.0023488169827430285  ,-1.671617985409182e-06  ,0.0                     ,0.0023488200919981063  ,-115.90419248965097    ,0.0 ,0.0                   ,0.0                     ,        0.0 ,        0.0 , 0.0
 0.0 ,0.0 ,           0.0 ,            0.0 ,            0.0 ,            0.0 ,              0.0 ,                   0.0 ,1208.0 ,24.37215 ,-31.26654 ,           0.0 ,           0.0 ,       0.0 ,-125.2173      ,-18.74481   ,-0.007164293     ,-0.0007122849    ,                 0.0 ,             0.0 ,             0.0 ,                 0.0 ,                 0.0 ,        0.0 ,1.9633437770370221     ,            0.0 ,            0.0 ,            0.0 ,              0.0 ,                   0.0 ,  0.0 ,0.0 ,1133.4419027418119   ,1.0                ,0.0 ,-216.84907862873177 ,-434.9688360963628  ,-5.3734662335979735     ,-217.14936591070435 ,          0.0 ,          0.0 ,-216.71582234874998 ,-435.10214010000567 ,-217.14936591070435 ,-868.9673283594599  ,125.96051956378405   ,289.6558094531534   ,218.16994967503413   ,-341.1026902422334    ,-559.2224981729588  ,-5.3734662335979735     ,-341.4029298005448  ,          0.0 ,          0.0 ,-340.96938623859046  ,-559.3557544529406  ,-341.4029298005448  ,-1241.728114589248  ,125.96051956378405   ,413.90937334299383   ,218.16994967503413   ,-1.0950560564528346e-06 ,-2.2704905395769938e-05 ,-3.561876428617107e-06  ,      0.0 ,      0.0 ,      0.0 ,-9.492415826094392e-07  ,-2.2850717537827613e-05 ,      0.0 ,-2.3799960038645387e-05 ,1.2927912743194634e-05 ,0.8187376244513669   ,0.5033327809842784      ,-0.0020365615827697718  ,-0.0010653904751180736  ,0.0012981659819612018  ,-54.912957283795116    ,0.0 ,-69.33831030160367    ,-69.33831030160367      ,        0.0 ,        0.0 , 0.0
 0.0 ,0.0 ,           0.0 ,            0.0 ,            0.0 ,            0.0 ,              0.0 ,                   0.0 ,1209.0 ,22.44366 ,-31.64198 ,           0.0 ,           0.0 ,       0.0 ,-128.8875      ,-18.75323   ,0.005563612      ,0.001029794      ,                 0.0 ,             0.0 ,             0.0 ,                 0.0 ,                 0.0 ,        0.0 ,1.0437172509273802     ,            0.0 ,            0.0 ,            0.0 ,              0.0 ,                   0.0 ,  0.0 ,0.0 ,1130.6313240295494   ,0.9999999999999999 ,0.0 ,-218.65465044237257 ,-438.0206647893251  ,-5.409491363785185      ,-218.85522986132906 ,          0.0 ,          0.0 ,-218.52036315821692 ,-438.15489988761817 ,-218.85522986132906 ,-875.5304929071641  ,126.70966154007043   ,291.84351293135705  ,219.46748589094483   ,-346.6789429159241    ,-566.0450553356462  ,-5.409491363785185      ,-346.879524262111   ,          0.0 ,          0.0 ,-346.544707817631    ,-566.1792923611697  ,-346.879524262111   ,-1259.6034799639706 ,126.70966154007043   ,419.8678575907712    ,219.46748589094483   ,-9.554770555626796e-07  ,-2.1678622708422483e-05 ,-3.6898161815049307e-06 ,      0.0 ,      0.0 ,      0.0 ,-7.925128541796748e-07  ,-2.1841586832716277e-05 ,      0.0 ,-2.263409732814277e-05  ,1.2387814181963658e-05 ,0.8213004587468371   ,0.49556392580061737     ,-0.0019988469224851515  ,-0.0010094863570398987  ,0.0018497523721365584  ,-59.64881918864752     ,0.0 ,-68.37327877711755    ,-68.37327877711755      ,        0.0 ,        0.0 , 0.0
 0.0 ,0.0 ,           0.0 ,            0.0 ,            0.0 ,            0.0 ,              0.0 ,                   0.0 ,1210.0 ,20.46733 ,-31.9453  ,           0.0 ,           0.0 ,       0.0 ,-131.8228      ,-18.76302   ,0.007641508      ,-0.0004584602    ,                 0.0 ,             0.0 ,             0.0 ,                 0.0 ,                 0.0 ,        0.0 ,0.9894722453073158     ,            0.0 ,            0.0 ,            0.0 ,              0.0 ,                   0.0 ,  0.0 ,0.0 ,1136.862432016142    ,1.0                ,0.0 ,-220.7571339819815  ,-441.10407028404506 ,-5.352273837881308      ,-220.63348635873808 ,          0.0 ,          0.0 ,-220.6258849272171  ,-441.2352698651973  ,-220.63348635873808 ,-882.4946411511523  ,127.36672333358895   ,294.1648635371265   ,220.60555895902576   ,-351.7580217467913    ,-572.1050580354697  ,-5.352273837881308      ,-351.63442466332083 ,          0.0 ,          0.0 ,-351.62687269202695  ,-572.2362576300071  ,-351.63442466332083 ,-1275.4976066180589 ,127.36672333358895   ,425.16585130193636   ,220.60555895902576   ,-9.043071520884014e-07  ,-2.060633258157192e-05  ,-3.5088913187893755e-06 ,      0.0 ,      0.0 ,      0.0 ,-7.492953010373532e-07  ,-2.0761344432087564e-05 ,      0.0 ,-2.1510637261184373e-05 ,1.1776228169024546e-05 ,0.8167900732810705   ,0.503577361936148       ,-0.002754321384804358   ,-0.0014262519477507396  ,0.001820367335540616   ,-58.70035192252266     ,0.0 ,-72.29753453615386    ,-72.29753453615386      ,        0.0 ,        0.0 , 0.0
 0.0 ,0.0 ,           0.0 ,            0.0 ,            0.0 ,            0.0 ,              0.0 ,                   0.0 ,1211.0 ,18.47606 ,-32.26406 ,           0.0 ,           0.0 ,       0.0 ,-134.8943      ,-18.77463   ,0.0076085        ,0.0001479575     ,                 0.0 ,             0.0 ,             0.0 ,                 0.0 ,                 0.0 ,        0.0 ,2.0212991167591037     ,            0.0 ,            0.0 ,            0.0 ,              0.0 ,                   0.0 ,  0.0 ,0.0 ,1137.8234116474225   ,1.0                ,0.0 ,-223.51862401158928 ,-445.1455419605198  ,-5.271103139406934      ,-223.14394056785505 ,          0.0 ,          0.0 ,-223.39271360815255 ,-445.2714523639565  ,-223.14394056785505 ,-891.8081065399641  ,128.17367179190492   ,297.26936836657103  ,222.00334287818868   ,-356.8378435321274    ,-578.4648102284546  ,-5.271103139406934      ,-356.4631109657015  ,          0.0 ,          0.0 ,-356.7119331286907   ,-578.5907206318913  ,-356.4631109657015  ,-1291.7658080879717 ,128.17367179190492   ,430.5885878871092    ,222.00334287818868   ,-5.216482629318577e-06  ,-3.76560464166641e-05   ,-6.619079277847631e-06  ,      0.0 ,      0.0 ,      0.0 ,-4.881398436932671e-06  ,-3.7991133640998674e-05 ,      0.0 ,-4.287252909608682e-05  ,2.0673689041498012e-05 ,0.8138679435042034   ,0.5107319862120496      ,-0.0018744106960675703  ,-6.317787779856766e-07  ,0.0017940480007109963  ,-59.390637982891974    ,0.0 ,-73.92670764933601    ,-73.92670764933601      ,        0.0 ,        0.0 , 0.0
 0.0 ,0.0 ,           0.0 ,            0.0 ,            0.0 ,            0.0 ,              0.0 ,                   0.0 ,1212.0 ,16.45813 ,-32.70572 ,           0.0 ,           0.0 ,       0.0 ,-139.1677      ,-18.78895   ,0.01085678       ,2.468512e-05     ,                 0.0 ,             0.0 ,             0.0 ,                 0.0 ,                 0.0 ,        0.0 ,3.0469640248181014     ,            0.0 ,            0.0 ,            0.0 ,              0.0 ,                   0.0 ,  0.0 ,0.0 ,1137.0877638445627   ,1.0                ,0.0 ,-226.67602129766635 ,-449.9114916650573  ,-4.80567615456904       ,-225.8444290216678  ,          0.0 ,          0.0 ,-226.57251772942487 ,-450.0149952332988  ,-225.8444290216678  ,-902.4319434536344  ,129.21533403181897   ,300.81063144419755  ,223.8075443035325    ,-364.24586137147105   ,-587.4813317388621  ,-4.80567615456904       ,-363.414272322632   ,          0.0 ,          0.0 ,-364.1423578032296   ,-587.5848353071034  ,-363.414272322632   ,-1315.1412730678533 ,129.21533403181897   ,438.38047151800225   ,223.8075443035325    ,-5.557596131102197e-06  ,-3.707254952047294e-05  ,-6.328468965929046e-06  ,      0.0 ,      0.0 ,      0.0 ,-5.242223359112501e-06  ,-3.7387926892293536e-05 ,      0.0 ,-4.2630147710344854e-05 ,2.0243789090722346e-05 ,0.6357278288392165   ,1.0                     ,-0.0030654173358510544  ,-2.7006783958204576e-06 ,0.0                    ,0.0030654198769122336  ,0.0 ,-137.56983860456174   ,-137.56983860456174     ,        0.0 ,        0.0 , 0.0
 0.0 ,0.0 ,           0.0 ,            0.0 ,            0.0 ,            0.0 ,              0.0 ,                   0.0 ,1213.0 ,14.35905 ,-33.53196 ,           0.0 ,           0.0 ,       0.0 ,-147.2385      ,-18.80811   ,-0.0003835497    ,0.0001978712     ,                 0.0 ,             0.0 ,             0.0 ,                 0.0 ,                 0.0 ,        0.0 ,2.636781262084055      ,            0.0 ,            0.0 ,            0.0 ,              0.0 ,                   0.0 ,  0.0 ,0.0 ,1089.5402312504873   ,1.0                ,0.0 ,-231.73280518904676 ,-459.0484128047579  ,-3.684943762057226      ,-230.59815531757255 ,          0.0 ,          0.0 ,-231.6670247208063  ,-459.1141478323739  ,-230.59815531757255 ,-921.379344324024   ,131.62631888870462   ,307.12642747670935  ,227.98348084518858   ,-377.3927038434785    ,-604.7083114591898  ,-3.684943762057226      ,-376.2580920781083  ,          0.0 ,          0.0 ,-377.32696881586264  ,-604.7740464868056  ,-376.2580920781083  ,-1358.359085727944  ,131.62631888870462   ,452.7863715717657    ,227.98348084518858   ,-5.1124680083520936e-06 ,-3.6531101083268234e-05 ,-3.988097999260692e-06  ,      0.0 ,      0.0 ,      0.0 ,-4.941257723187027e-06  ,-3.6702314516655004e-05 ,      0.0 ,-4.164356856890746e-05  ,1.9917558027835602e-05 ,0.6362968044080602   ,1.0                     ,-0.0023540911693985984  ,-1.392764194839322e-06  ,0.0                    ,0.0023540930227081867  ,0.0 ,-145.65988220116034   ,-145.65988220116034     ,        0.0 ,        0.0 , 0.0
 0.0 ,0.0 ,           0.0 ,            0.0 ,            0.0 ,            0.0 ,              0.0 ,                   0.0 ,1214.0 ,12.09196 ,-33.60698 ,           0.0 ,           0.0 ,       0.0 ,-147.7802      ,-18.82897   ,-0.006820898     ,-0.001727431     ,                 0.0 ,             0.0 ,             0.0 ,                 0.0 ,                 0.0 ,        0.0 ,1.1922271725443094     ,            0.0 ,            0.0 ,            0.0 ,              0.0 ,                   0.0 ,  0.0 ,0.0 ,1036.0103826786426   ,1.0                ,0.0 ,-233.4798491322931  ,-462.27911586044615 ,-2.808859527965815      ,-232.36541831553626 ,          0.0 ,          0.0 ,-233.43817076043706 ,-462.32076510445273 ,-232.36541831553626 ,-928.1243475784266  ,132.45629349244317   ,309.3747792244315   ,229.4210353301541    ,-379.84409023459386   ,-608.6433569627469  ,-2.808859527965815      ,-378.7296401951197  ,          0.0 ,          0.0 ,-379.8024668153039   ,-608.6850062067535  ,-378.7296401951197  ,-1367.217003316311  ,132.45629349244317   ,455.7390560565811    ,229.4210353301541    ,-4.470167784538923e-06  ,-3.562832476793897e-05  ,-2.900858582860856e-06  ,      0.0 ,      0.0 ,      0.0 ,-4.346345628195159e-06  ,-3.575214675921141e-05  ,      0.0 ,-4.0098489997076755e-05 ,1.951662888049656e-05  ,0.7309434118754603   ,0.7411921827490922      ,-0.0019010378193806963  ,5.139785004620719e-07   ,0.0005606509830678041  ,-29.705406184470924    ,0.0 ,-116.65691402655494   ,-116.65691402655494     ,        0.0 ,        0.0 , 0.0
 0.0 ,0.0 ,           0.0 ,            0.0 ,            0.0 ,            0.0 ,              0.0 ,                   0.0 ,1215.0 ,9.983065 ,-33.7389  ,           0.0 ,           0.0 ,       0.0 ,-148.8685      ,-18.85205   ,-0.01458656      ,0.000158885      ,                 0.0 ,             0.0 ,             0.0 ,                 0.0 ,                 0.0 ,        0.0 ,2.730873577272358      ,            0.0 ,            0.0 ,            0.0 ,              0.0 ,                   0.0 ,  0.0 ,0.0 ,1035.9813793145368   ,1.0                ,0.0 ,-235.75164681531427 ,-466.13077856852146 ,-1.4794003303556937     ,-234.5212972006605  ,          0.0 ,          0.0 ,-235.7346863256111  ,-466.1477612711968  ,-234.5212972006605  ,-936.4037717101107  ,133.38078765095594   ,312.1345921365936   ,231.02225601112502   ,-383.5233947099651    ,-613.9025264631723  ,-1.4794003303556937     ,-382.2929927454762  ,          0.0 ,          0.0 ,-383.50643422026195  ,-613.9195091658476  ,-382.2929927454762  ,-1379.718893181091  ,133.38078765095594   ,459.90631311860216   ,231.02225601112502   ,-4.557788581343793e-06  ,-3.27317887223819e-05   ,-1.9059723408977576e-06 ,      0.0 ,      0.0 ,      0.0 ,-4.463025411858748e-06  ,-3.282655090745395e-05  ,      0.0 ,-3.7289576970947366e-05 ,1.782299819912618e-05  ,0.7292757307116279   ,0.7449896536969192      ,-0.003207975939442482   ,-1.7911065311525898e-06 ,0.0006384201204444399  ,-29.841742918704515    ,0.0 ,-117.92674601058971   ,-117.92674601058971     ,        0.0 ,        0.0 , 0.0
 0.0 ,0.0 ,           0.0 ,            0.0 ,            0.0 ,            0.0 ,              0.0 ,                   0.0 ,1216.0 ,7.945422 ,-33.88515 ,           0.0 ,           0.0 ,       0.0 ,-150.0753      ,-18.87762   ,-0.02172867      ,-0.0008164758    ,                 0.0 ,             0.0 ,             0.0 ,                 0.0 ,                 0.0 ,        0.0 ,2.0206388932221797     ,            0.0 ,            0.0 ,            0.0 ,              0.0 ,                   0.0 ,  0.0 ,0.0 ,1064.1699506890718   ,1.0                ,0.0 ,-238.55402179465352 ,-471.4695260855469  ,0.16192192793304874     ,-237.331799825245   ,          0.0 ,          0.0 ,-238.55350804481736 ,-471.4700405162135  ,-237.331799825245   ,-947.3553970085665  ,134.8284878796411    ,315.78513187873546  ,233.52975292904      ,-387.7386501755177    ,-620.654154466411   ,0.16192192793304874     ,-386.51647751992925 ,          0.0 ,          0.0 ,-387.73818573950155  ,-620.6547182108977  ,-386.51647751992925 ,-1394.9090335288683 ,134.8284878796411    ,464.96976095112916   ,233.52975292904      ,-4.207559470756118e-06  ,-3.1481991130653866e-05 ,-4.6499779261666686e-07 ,      0.0 ,      0.0 ,      0.0 ,-4.1913357400483584e-06 ,-3.1498212334288894e-05 ,      0.0 ,-3.5689547615454546e-05 ,1.7125892669577345e-05 ,0.6386348795168467   ,0.9930673496811095      ,-0.003948809886685243   ,-1.534807730464592e-06  ,1.735593679138414e-05  ,-0.8074088907344726    ,0.0 ,-148.37332003055315   ,-148.37332003055315     ,        0.0 ,        0.0 , 0.0
 0.0 ,0.0 ,           0.0 ,            0.0 ,            0.0 ,            0.0 ,              0.0 ,                   0.0 ,1217.0 ,5.943073 ,-34.03722 ,           0.0 ,           0.0 ,       0.0 ,-151.3155      ,-18.90567   ,-0.03710395      ,0.0001241217     ,                 0.0 ,             0.0 ,             0.0 ,                 0.0 ,                 0.0 ,        0.0 ,1.9887748836558932     ,            0.0 ,            0.0 ,            0.0 ,              0.0 ,                   0.0 ,  0.0 ,0.0 ,1064.9756350032171   ,1.0                ,0.0 ,-241.3124788458158  ,-478.23676961675676 ,2.5233101016022794      ,-240.64442306748919 ,          0.0 ,          0.0 ,-241.28482684370746 ,-478.26437115334744 ,-240.64442306748919 ,-960.1936221870558  ,137.00546088244886   ,320.0645575508578   ,237.3004388162649    ,-391.90258880503353   ,-628.8268302329685  ,2.5233101016022794      ,-391.23448480621255 ,          0.0 ,          0.0 ,-391.8749379254368   ,-628.8544822350768  ,-391.23448480621255 ,-1411.9638004766796 ,137.00546088244886   ,470.6546181670695    ,237.3004388162649    ,-3.2831864275050393e-06 ,-3.3456140724504653e-05 ,1.8662110472050084e-06  ,      0.0 ,      0.0 ,      0.0 ,-3.2403554010556313e-06 ,-3.349896880681618e-05  ,      0.0 ,-3.673932367528557e-05  ,1.8488516159211648e-05 ,0.8174185988359982   ,0.5028297224634815      ,-0.001843202072306196   ,-7.760735240002328e-07  ,0.0018254541564971531  ,-70.09772263933466     ,0.0 ,-80.4905462448063     ,-80.4905462448063       ,        0.0 ,        0.0 , 0.0
 0.0 ,0.0 ,           0.0 ,            0.0 ,            0.0 ,            0.0 ,              0.0 ,                   0.0 ,1218.0 ,15.67277 ,-34.65831 ,           0.0 ,           0.0 ,       0.0 ,-158.5701      ,-18.8013    ,-0.01345967      ,-0.001021795     ,                 0.0 ,             0.0 ,             0.0 ,                 0.0 ,                 0.0 ,        0.0 ,3.0614984345414546     ,            0.0 ,            0.0 ,            0.0 ,              0.0 ,                   0.0 ,  0.0 ,0.0 ,1127.292400956616    ,1.0                ,0.0 ,-234.7698974667317  ,-466.4427475545665  ,-3.5256105833910927     ,-234.0770329632575  ,          0.0 ,          0.0 ,-234.71073510711167 ,-466.5019099141865  ,-234.0770329632575  ,-935.2896933368297  ,134.00801068298506   ,311.763213420636    ,232.10873277650379   ,-392.12559320406604   ,-623.7984432919008  ,-3.5256105833910927     ,-391.43276642323934 ,          0.0 ,          0.0 ,-392.066430844446    ,-623.8576056515208  ,-391.43276642323934 ,-1407.3565969932727 ,134.00801068298506   ,469.11894688061784   ,232.10873277650379   ,-3.829079428257528e-06  ,-2.759084442432249e-05  ,-2.5470429001408443e-06 ,      0.0 ,      0.0 ,      0.0 ,-3.750055828726432e-06  ,-2.7669869997359224e-05 ,      0.0 ,-3.141992844482767e-05  ,1.5010322627764653e-05 ,0.7227873240736196   ,0.7636433951531296      ,-0.0024666448327445886  ,-2.217559431652935e-06  ,0.001816158197425282   ,-38.91682717092306     ,0.0 ,-118.43691204198144   ,-118.43691204198144     ,        0.0 ,        0.0 , 0.0
 0.0 ,0.0 ,           0.0 ,            0.0 ,            0.0 ,            0.0 ,              0.0 ,                   0.0 ,1219.0 ,17.22242 ,-34.41329 ,           0.0 ,           0.0 ,       0.0 ,-156.2391      ,-18.78938   ,-0.003768093     ,0.00144049       ,                 0.0 ,             0.0 ,             0.0 ,                 0.0 ,                 0.0 ,        0.0 ,1.0174078616192668     ,            0.0 ,            0.0 ,            0.0 ,              0.0 ,                   0.0 ,  0.0 ,0.0 ,1141.8242725901412   ,1.0                ,0.0 ,-232.92793050517002 ,-463.18979266230247 ,-3.98754900517404       ,-232.3410913905158  ,          0.0 ,          0.0 ,-232.85377385173598 ,-463.26394931573657 ,-232.3410913905158  ,-928.4587654283814  ,133.17559556539058   ,309.4862563810169   ,230.66695813450508   ,-388.39421117390043   ,-618.6560733310328  ,-3.98754900517404       ,-387.80732391658086 ,          0.0 ,          0.0 ,-388.32005452046633  ,-618.730229984467   ,-387.80732391658086 ,-1394.8572647473625 ,133.17559556539058   ,464.9525370497473    ,230.66695813450508   ,-2.843876442022589e-06  ,-1.8083999365418225e-05 ,-2.9054608632129695e-06 ,      0.0 ,      0.0 ,      0.0 ,-2.7064272765876608e-06 ,-1.8221450056964946e-05 ,      0.0 ,-2.0927876852125954e-05 ,9.832560313649948e-06  ,0.8251849313656332   ,0.47770117014815944     ,-0.0029214127514983717  ,-5.639470330890229e-07  ,0.003903353946065269   ,-85.88559952160601     ,0.0 ,-69.57890920818423    ,-69.57890920818423      ,        0.0 ,        0.0 , 0.0
 0.0 ,0.0 ,           0.0 ,            0.0 ,            0.0 ,            0.0 ,              0.0 ,                   0.0 ,1220.0 ,19.02582 ,-34.16532 ,           0.0 ,           0.0 ,       0.0 ,-153.8818      ,-18.77714   ,0.004504404      ,-0.0001989246    ,                 0.0 ,             0.0 ,             0.0 ,                 0.0 ,                 0.0 ,        0.0 ,1.896464474901728      ,            0.0 ,            0.0 ,            0.0 ,              0.0 ,                   0.0 ,  0.0 ,0.0 ,1147.8373598993142   ,1.0                ,0.0 ,-231.09961752235415 ,-460.25631252143984 ,-4.6134114487181215     ,-230.7599855123423  ,          0.0 ,          0.0 ,-231.00577897380256 ,-460.3501510699914  ,-230.7599855123423  ,-922.1159155561363  ,132.48309664763312   ,307.37197072979467  ,229.4674773282544    ,-383.5349673925769    ,-612.6916675684388  ,-4.6134114487181215     ,-383.19529405274136 ,          0.0 ,          0.0 ,-383.44113402080154  ,-612.7855061169904  ,-383.19529405274136 ,-1379.4217567076623 ,132.48309664763312   ,459.8073257767937    ,229.4674773282544    ,-4.929005442164695e-06  ,-3.3734210113633624e-05 ,-5.051664135674906e-06  ,      0.0 ,      0.0 ,      0.0 ,-4.7073231581286975e-06 ,-3.395589524236633e-05  ,      0.0 ,-3.866321793542903e-05  ,1.8397791205137825e-05 ,0.8123596214012273   ,0.5150555000960193      ,-0.0019942404140660085  ,-0.0001466740974067803  ,0.001778261451652058   ,-77.81348772972794     ,0.0 ,-74.61983789566456    ,-74.61983789566456      ,        0.0 ,        0.0 , 0.0
 0.0 ,0.0 ,           0.0 ,            0.0 ,            0.0 ,            0.0 ,              0.0 ,                   0.0 ,1221.0 ,20.95552 ,-33.92667 ,           0.0 ,           0.0 ,       0.0 ,-151.6086      ,-18.76581   ,0.004637386      ,0.0005538145     ,                 0.0 ,             0.0 ,             0.0 ,                 0.0 ,                 0.0 ,        0.0 ,1.9891995530879525     ,            0.0 ,            0.0 ,            0.0 ,              0.0 ,                   0.0 ,  0.0 ,0.0 ,1139.2781553489272   ,1.0                ,0.0 ,-229.32571261454308 ,-457.9433655448308  ,-4.603978700537771      ,-229.17678463316818 ,          0.0 ,          0.0 ,-229.23184762650376 ,-458.0371801527161  ,-229.17678463316818 ,-916.4458113323434  ,132.11676828123436   ,305.48193649733025  ,228.83291256268146   ,-379.3605581492872    ,-607.978211079575   ,-4.603978700537771      ,-379.2116805480663  ,          0.0 ,          0.0 ,-379.2667435414019   ,-608.0720760676143  ,-379.2116805480663  ,-1366.5506038377875 ,132.11676828123436   ,455.5168324122284    ,228.83291256268146   ,-3.2974978339437707e-06 ,-3.71924048064563e-05   ,-5.696030826521326e-06  ,      0.0 ,      0.0 ,      0.0 ,-3.0586617164661405e-06 ,-3.7431240418924055e-05 ,      0.0 ,-4.048990615500205e-05  ,2.080126274525441e-05  ,0.8182619577204303   ,0.5019915662489527      ,-0.001854583934387219   ,-5.588287588826359e-07  ,0.0018099732801559445  ,-80.11203823754562     ,0.0 ,-69.9210035063185     ,-69.9210035063185       ,        0.0 ,        0.0 , 0.0
 0.0 ,0.0 ,           0.0 ,            0.0 ,            0.0 ,            0.0 ,              0.0 ,                   0.0 ,1222.0 ,27.40257 ,-33.83278 ,           0.0 ,           0.0 ,       0.0 ,-150.9447      ,-18.73831   ,-0.003060959     ,-0.0002006521    ,                 0.0 ,             0.0 ,             0.0 ,                 0.0 ,                 0.0 ,        0.0 ,2.058862524423078      ,            0.0 ,            0.0 ,            0.0 ,              0.0 ,                   0.0 ,  0.0 ,0.0 ,1147.3517310909517   ,1.0                ,0.0 ,-226.1553768190226  ,-454.49780063673984 ,-4.356647630748353      ,-226.70902037189913 ,          0.0 ,          0.0 ,-226.07138912867816 ,-454.58178676227635 ,-226.70902037189913 ,-907.3621992059798  ,131.74704031288184   ,302.45409881644775  ,228.19259725394176   ,-376.1073642830308    ,-604.4497894790663  ,-4.356647630748353      ,-376.6610107790335  ,          0.0 ,          0.0 ,-376.02337659268636  ,-604.5337771694108  ,-376.6610107790335  ,-1357.2179712462325 ,131.74704031288184   ,452.4060384411782    ,228.19259725394176   ,-2.0062662499578054e-07 ,-2.2479693830231092e-05 ,-2.540926688810945e-06  ,      0.0 ,      0.0 ,      0.0 ,-1.2819006431647526e-07 ,-2.2552133607904613e-05 ,      0.0 ,-2.2680322748704965e-05 ,1.298363525783573e-05  ,0.8140730699675927   ,0.5200740384550221      ,-0.001901799313854192   ,-1.556331964050585e-06  ,0.0016397017687574372  ,-68.04813854625561     ,0.0 ,-81.90252846748814    ,-81.90252846748814      ,        0.0 ,        0.0 , 0.0
 0.0 ,0.0 ,           0.0 ,            0.0 ,            0.0 ,            0.0 ,              0.0 ,                   0.0 ,1223.0 ,29.45665 ,-33.93683 ,           0.0 ,           0.0 ,       0.0 ,-152.0526      ,-18.73158   ,0.0008161739     ,0.000103846      ,                 0.0 ,             0.0 ,             0.0 ,                 0.0 ,                 0.0 ,        0.0 ,1.5034671350490398     ,            0.0 ,            0.0 ,            0.0 ,              0.0 ,                   0.0 ,  0.0 ,0.0 ,1149.767084275176    ,1.0                ,0.0 ,-226.03318810348404 ,-454.4794150345181  ,-4.112773484467086      ,-226.69217625966849 ,          0.0 ,          0.0 ,-225.95724516332578 ,-454.55540722793586 ,-226.69217625966849 ,-907.2047793976707  ,131.7696991795071    ,302.40161018147944  ,228.23184782314704   ,-377.6012007142539    ,-606.047427645288   ,-4.112773484467086      ,-378.2600907639466  ,          0.0 ,          0.0 ,-377.5252577740957   ,-606.1233705854462  ,-378.2600907639466  ,-1361.908861496142  ,131.7696991795071    ,453.96957259223575   ,228.23184782314704   ,-2.1257155324402723e-07 ,-1.7166112008750705e-05 ,-3.52441278192655e-06   ,      0.0 ,      0.0 ,      0.0 ,-3.044893722027555e-08  ,-1.734823623401419e-05  ,      0.0 ,-1.7378684337397156e-05 ,1.000722957752033e-05  ,0.9966253782714688   ,0.005054016341286777    ,-0.0006364609363635436  ,-2.84545813156271e-08   ,0.004525300118382686   ,-150.07682469850639    ,0.0 ,-1.4911642402295242   ,-1.4911642402295242     ,        0.0 ,        0.0 , 0.0
 0.0 ,0.0 ,           0.0 ,            0.0 ,            0.0 ,            0.0 ,              0.0 ,                   0.0 ,1224.0 ,31.46493 ,-33.91557 ,           0.0 ,           0.0 ,       0.0 ,-151.9013      ,-18.72544   ,0.00209224       ,1.861344e-05     ,                 0.0 ,             0.0 ,             0.0 ,                 0.0 ,                 0.0 ,        0.0 ,2.9916203920544087     ,            0.0 ,            0.0 ,            0.0 ,              0.0 ,                   0.0 ,  0.0 ,0.0 ,1151.067702600867    ,1.0                ,0.0 ,-225.8508806759578  ,-454.67582421167975 ,-3.5897054416364913     ,-226.38233905683026 ,          0.0 ,          0.0 ,-225.79256255767385 ,-454.73414232996373 ,-226.38233905683026 ,-906.9090439444677  ,132.0095027430577    ,302.30298132927743  ,228.64724311190395   ,-375.9762755975996    ,-604.8012191333216  ,-3.5897054416364913     ,-376.50773393510747 ,          0.0 ,          0.0 ,-375.9179574793157   ,-604.8595372516055  ,-376.50773393510747 ,-1357.2852783988246 ,132.0095027430577    ,452.4283762509193    ,228.64724311190395   ,-1.64229082999285e-07   ,-4.405046467419921e-05  ,-5.056767710091931e-06  ,      0.0 ,      0.0 ,      0.0 ,-1.6296859580402406e-08 ,-4.419839385241028e-05  ,      0.0 ,-4.4214694500281415e-05 ,2.5513367795718897e-05 ,0.8208812494033543   ,0.5027333235922541      ,-0.001855617511559501   ,-1.674300044595048e-06  ,0.001239658646259298   ,-79.27375961617376     ,0.0 ,-70.84978156634767    ,-70.84978156634767      ,        0.0 ,        0.0 , 0.0
 0.0 ,0.0 ,           0.0 ,            0.0 ,            0.0 ,            0.0 ,              0.0 ,                   0.0 ,1225.0 ,33.47205 ,-33.85177 ,           0.0 ,           0.0 ,       0.0 ,-151.3204      ,-18.71973   ,-0.0009756185    ,-0.0004156168    ,                 0.0 ,             0.0 ,             0.0 ,                 0.0 ,                 0.0 ,        0.0 ,3.4941782889654047     ,            0.0 ,            0.0 ,            0.0 ,              0.0 ,                   0.0 ,  0.0 ,0.0 ,1152.3417099289404   ,1.0                ,0.0 ,-225.0931773311412  ,-453.3830972875202  ,-3.1201473126533967     ,-225.7064707115163  ,          0.0 ,          0.0 ,-225.0491985625825  ,-453.42712455338267 ,-225.7064707115163  ,-904.1827947480065  ,131.66474655248965   ,301.3942811630425   ,228.05006949906192   ,-374.98376143464884   ,-603.2737308088567  ,-3.1201473126533967     ,-375.59700515337795 ,          0.0 ,          0.0 ,-374.9397826660902   ,-603.3177095774154  ,-375.59700515337795 ,-1353.8542544227303 ,131.66474655248965   ,451.2848165254292    ,228.05006949906192   ,-2.0131229423940137e-07 ,-4.0823402757450226e-05 ,-5.219739266557525e-06  ,      0.0 ,      0.0 ,      0.0 ,-1.8747419435830864e-08 ,-4.100596802987543e-05  ,      0.0 ,-4.102471457078993e-05  ,2.3669720706966796e-05 ,0.6454065650951988   ,1.0                     ,-0.004135892840858066   ,-6.548059724375516e-06  ,0.0                    ,0.004135897882555412   ,0.0 ,-149.89058410350768   ,-149.89058410350768     ,        0.0 ,        0.0 , 0.0
 0.0 ,0.0 ,           0.0 ,            0.0 ,            0.0 ,            0.0 ,              0.0 ,                   0.0 ,1226.0 ,35.49485 ,-33.78716 ,           0.0 ,           0.0 ,       0.0 ,-150.7279      ,-18.71437   ,-0.002783462     ,5.058145e-05     ,                 0.0 ,             0.0 ,             0.0 ,                 0.0 ,                 0.0 ,        0.0 ,3.507172878033747      ,            0.0 ,            0.0 ,            0.0 ,              0.0 ,                   0.0 ,  0.0 ,0.0 ,1151.452410600035    ,1.0                ,0.0 ,-224.51268693512708 ,-452.476585573836   ,-2.6002562467542774     ,-225.17329665687953 ,          0.0 ,          0.0 ,-224.48303181438183 ,-452.5062906596605  ,-225.17329665687953 ,-902.1625713526267  ,131.45049788516127   ,300.7208568668061   ,227.67897140301523   ,-373.85870674631417   ,-601.8226561023108  ,-2.6002562467542774     ,-374.519267937563   ,          0.0 ,          0.0 ,-373.8290516255689   ,-601.8522626925524  ,-374.519267937563   ,-1350.200482395367  ,131.45049788516127   ,450.06687743020166   ,227.67897140301523   ,-3.0564430665129505e-08 ,-4.070791278093711e-05  ,-4.893697805490573e-06  ,      0.0 ,      0.0 ,      0.0 ,1.257850827897765e-07   ,-4.086425919938642e-05  ,      0.0 ,-4.0738476792468275e-05 ,2.3629428418857218e-05 ,0.8179645971611601   ,0.5119123395264686      ,-0.0013135357064143094  ,-2.1387528955084227e-06 ,0.0027826284320050902  ,-67.43498092214243     ,0.0 ,-81.90973045194585    ,-81.90973045194585      ,        0.0 ,        0.0 , 0.0
 0.0 ,0.0 ,           0.0 ,            0.0 ,            0.0 ,            0.0 ,              0.0 ,                   0.0 ,1227.0 ,37.52267 ,-33.80099 ,           0.0 ,           0.0 ,       0.0 ,-150.9167      ,-18.70932   ,0.005780723      ,0.0006386159     ,                 0.0 ,             0.0 ,             0.0 ,                 0.0 ,                 0.0 ,        0.0 ,2.4620038354858735     ,            0.0 ,            0.0 ,            0.0 ,              0.0 ,                   0.0 ,  0.0 ,0.0 ,1157.6274800683523   ,1.0                ,0.0 ,-224.08498972862202 ,-451.67508545250206 ,-1.9446621767930923     ,-224.75248736628606 ,          0.0 ,          0.0 ,-224.06642460567136 ,-451.69365390678774 ,-224.75248736628606 ,-900.5125130156915  ,131.22306423282862   ,300.1708376718972   ,227.2850374819135    ,-373.8321036472669    ,-601.4221522342004  ,-1.9446621767930923     ,-374.49955175321236 ,          0.0 ,          0.0 ,-373.8134913873698   ,-601.440718293714   ,-374.49955175321236 ,-1349.7537100294521 ,131.22306423282862   ,449.9179515905421    ,227.2850374819135    ,-9.864733764203303e-08  ,-3.856704757596537e-05  ,-4.994631119532065e-06  ,      0.0 ,      0.0 ,      0.0 ,6.961590481228142e-08   ,-3.873530813643896e-05  ,      0.0 ,-3.866569808304943e-05  ,2.238400296225114e-05  ,0.8214557760454263   ,0.5018427831538693      ,-0.0018091913631666807  ,-1.7615677110278467e-06 ,0.002840035812132031   ,-68.82573856770415     ,0.0 ,-80.91957136401857    ,-80.91957136401857      ,        0.0 ,        0.0 , 0.0
 0.0 ,0.0 ,           0.0 ,            0.0 ,            0.0 ,            0.0 ,              0.0 ,                   0.0 ,1228.0 ,39.41746 ,-34.25057 ,           0.0 ,           0.0 ,       0.0 ,-155.4563      ,-18.70494   ,-0.0009473129    ,-0.001526851     ,                 0.0 ,             0.0 ,             0.0 ,                 0.0 ,                 0.0 ,        0.0 ,1.4955152082163972     ,            0.0 ,            0.0 ,            0.0 ,              0.0 ,                   0.0 ,  0.0 ,0.0 ,1155.1413939503466   ,1.0                ,0.0 ,-225.74869209937265 ,-455.3881360894252  ,-1.0789709980582893     ,-226.40965306886477 ,          0.0 ,          0.0 ,-225.74343023784587 ,-455.3934483994311  ,-226.40965306886477 ,-907.5464812576627  ,132.3966285419367    ,302.5155102720187   ,229.3176900051417    ,-379.39799522941433   ,-609.0373896679461  ,-1.0789709980582893     ,-380.0589561989065  ,          0.0 ,          0.0 ,-379.39268381636674  ,-609.0427515294729  ,-380.0589561989065  ,-1368.4942411031395 ,132.3966285419367    ,456.16481340206036   ,229.3176900051417    ,1.6732944660256593e-07  ,-4.5298272370725636e-05 ,-3.51459277257183e-06   ,      0.0 ,      0.0 ,      0.0 ,2.4674551581915836e-07  ,-4.537768844453992e-05  ,      0.0 ,-4.513094297846774e-05  ,2.6270434556933275e-05 ,0.8215194412802101   ,0.5033374805928331      ,-0.0018406285831009087  ,-1.8041950516376483e-06 ,0.0010785868905506075  ,-72.26356538910127     ,0.0 ,-81.38389820505017    ,-81.38389820505017      ,        0.0 ,        0.0 , 0.0
 0.0 ,0.0 ,           0.0 ,            0.0 ,            0.0 ,            0.0 ,              0.0 ,                   0.0 ,1229.0 ,41.30276 ,-34.47357 ,           0.0 ,           0.0 ,       0.0 ,-157.7294      ,-18.70063   ,-0.006036447     ,1.283087e-05     ,                 0.0 ,             0.0 ,             0.0 ,                 0.0 ,                 0.0 ,        0.0 ,0.4858117956688846     ,            0.0 ,            0.0 ,            0.0 ,              0.0 ,                   0.0 ,  0.0 ,0.0 ,1153.4445185165432   ,1.0                ,0.0 ,-226.23642891748764 ,-456.474995724762   ,-0.5962287774293223     ,-227.07915641744205 ,          0.0 ,          0.0 ,-226.23463030867194 ,-456.47688901992484 ,-227.07915641744205 ,-909.7906271648593  ,132.6873019959734    ,303.2635576964041   ,229.82112526111044   ,-382.947219973621     ,-613.1857380189012  ,-0.5962287774293223     ,-383.7899501304018  ,          0.0 ,          0.0 ,-382.9453752596377   ,-613.1876313140641  ,-383.7899501304018  ,-1379.922810598936  ,132.6873019959734    ,459.9743026473699    ,229.82112526111044   ,1.8137623073405234e-07  ,-2.3767404486334537e-05 ,-1.1495502182543155e-06 ,      0.0 ,      0.0 ,      0.0 ,1.9516298652098052e-07  ,-2.378119182509562e-05  ,      0.0 ,-2.358602665242156e-05  ,1.37867606450461e-05   ,0.8277753677846078   ,0.48650031285952844     ,-0.001115331647957273   ,-8.8689387491779e-05    ,0.001119933924100588   ,-75.2450179172671      ,0.0 ,-81.46461540944661    ,-81.46461540944661      ,        0.0 ,        0.0 , 0.0
 0.0 ,0.0 ,           0.0 ,            0.0 ,            0.0 ,            0.0 ,              0.0 ,                   0.0 ,1230.0 ,43.18271 ,-34.53678 ,           0.0 ,           0.0 ,       0.0 ,-158.4037      ,-18.69641   ,-0.007449492     ,3.169195e-05     ,                 0.0 ,             0.0 ,             0.0 ,                 0.0 ,                 0.0 ,        0.0 ,1.975960064356809      ,            0.0 ,            0.0 ,            0.0 ,              0.0 ,                   0.0 ,  0.0 ,0.0 ,1156.4827889333737   ,1.0                ,0.0 ,-227.02644329333157 ,-457.23916045722245 ,-0.1568210643380699     ,-227.43904466653865 ,          0.0 ,          0.0 ,-227.02629088293588 ,-457.2392636796197  ,-227.43904466653865 ,-911.7045992290941  ,132.79451422999372   ,303.90154947663234  ,230.0069047280617    ,-384.1248529958039    ,-614.3376185548983  ,-0.1568210643380699     ,-384.5375035698138  ,          0.0 ,          0.0 ,-384.12474898061174  ,-614.3377225700906  ,-384.5375035698138  ,-1382.999775120516  ,132.79451422999372   ,460.99995837350536   ,230.0069047280617    ,2.6481094409119184e-08  ,-4.002186527820279e-05  ,-4.570687120018425e-06  ,      0.0 ,      0.0 ,      0.0 ,2.3332693682830805e-07  ,-4.0228710990508576e-05 ,      0.0 ,-3.999538484802826e-05  ,2.3293745192181462e-05 ,0.8224796164709949   ,0.4989762612926512      ,-0.002833798584264973   ,-6.6974174467198454e-06 ,0.0010877612019677082  ,-73.65948437439731     ,0.0 ,-83.43614124878711    ,-83.43614124878711      ,        0.0 ,        0.0 , 0.0
 0.0 ,0.0 ,           0.0 ,            0.0 ,            0.0 ,            0.0 ,              0.0 ,                   0.0 ,1231.0 ,45.05989 ,-34.52252 ,           0.0 ,           0.0 ,       0.0 ,-158.3023      ,-18.69229   ,-0.005266252     ,-3.624452e-05    ,                 0.0 ,             0.0 ,             0.0 ,                 0.0 ,                 0.0 ,        0.0 ,1.9856774316022783     ,            0.0 ,            0.0 ,            0.0 ,              0.0 ,                   0.0 ,  0.0 ,0.0 ,1157.940415034906    ,1.0                ,0.0 ,-226.56868401816035 ,-456.40096283304416 ,-0.004118163804103601   ,-227.06711853426705 ,          0.0 ,          0.0 ,-226.56868382328474 ,-456.4009630279198  ,-227.06711853426705 ,-910.0368148812506  ,132.55014417013712   ,303.3456382937502   ,229.58366556128757   ,-383.9070340114474    ,-613.7392627118616  ,-0.004118163804103601   ,-384.4054184130844  ,          0.0 ,          0.0 ,-383.9070340114474   ,-613.7392627118616  ,-384.4054184130844  ,-1382.051964666236  ,132.55014417013712   ,460.6838884819129    ,229.58366556128757   ,1.27273400520361e-07    ,-2.3721804576194106e-05 ,-1.832921564776184e-06  ,      0.0 ,      0.0 ,      0.0 ,1.62771555526075e-07    ,-2.3757304470957364e-05 ,      0.0 ,-2.3594531629905163e-05 ,1.376351294608e-05     ,0.9993081432685103   ,-0.0003756671327036765  ,-0.00011128033414426619 ,-2.072371506267467e-08  ,0.0023287215691449583  ,-157.01309435451947    ,0.0 ,-0.3251448823337348   ,-0.3251448823337348     ,        0.0 ,        0.0 , 0.0
 0.0 ,0.0 ,           0.0 ,            0.0 ,            0.0 ,            0.0 ,              0.0 ,                   0.0 ,1232.0 ,46.94688 ,-34.47456 ,           0.0 ,           0.0 ,       0.0 ,-157.8634      ,-18.68822   ,-0.004102091     ,-1.418089e-05    ,                 0.0 ,             0.0 ,             0.0 ,                 0.0 ,                 0.0 ,        0.0 ,3.007377953558924      ,            0.0 ,            0.0 ,            0.0 ,              0.0 ,                   0.0 ,  0.0 ,0.0 ,1159.0286400188602   ,1.0                ,0.0 ,-226.6704087625077  ,-456.25334541261157 ,-0.07941063461403715    ,-226.84151023453512 ,          0.0 ,          0.0 ,-226.6704087625077  ,-456.2533950437139  ,-226.84151023453512 ,-909.7653140407567  ,132.50039238874294   ,303.2551048889727   ,229.49746104272208   ,-382.870005969682     ,-612.4528924741562  ,-0.07941063461403715    ,-383.0411075533434  ,          0.0 ,          0.0 ,-382.86995571241823  ,-612.4529923625222  ,-383.0411075533434  ,-1378.3642555846418 ,132.50039238874294   ,459.45465183888325   ,229.49746104272208   ,2.9959825874835265e-07  ,-4.526727156831399e-05  ,-4.05328813132135e-06   ,      0.0 ,      0.0 ,      0.0 ,3.9270103080974565e-07  ,-4.536037326502807e-05  ,      0.0 ,-4.4967669644144624e-05 ,2.6303476355343282e-05 ,0.999603041208688    ,-0.00195034831680265    ,-1.0177686097131088e-05 ,-1.0862158715380058e-08 ,0.003066698230355505   ,-156.03609737799434    ,0.0 ,-0.16349705868793452  ,-0.16349705868793452    ,        0.0 ,        0.0 , 0.0
 0.0 ,0.0 ,           0.0 ,            0.0 ,            0.0 ,            0.0 ,              0.0 ,                   0.0 ,1233.0 ,48.84758 ,-34.41499 ,           0.0 ,           0.0 ,       0.0 ,-157.3079      ,-18.6842    ,-0.003179033     ,0.0001363164     ,                 0.0 ,             0.0 ,             0.0 ,                 0.0 ,                 0.0 ,        0.0 ,2.5097529150998295     ,            0.0 ,            0.0 ,            0.0 ,              0.0 ,                   0.0 ,  0.0 ,0.0 ,1159.9670101502343   ,1.0                ,0.0 ,-226.42956659791304 ,-455.83577030046166 ,0.02655458376848721     ,-226.55188088558103 ,          0.0 ,          0.0 ,-226.42956638579335 ,-455.8357706186413  ,-226.55188088558103 ,-908.8172177839557  ,132.41246522027706   ,302.9390725946519   ,229.34509698295406   ,-381.72013646687793   ,-611.1263407135609  ,0.02655458376848721     ,-381.84250097358324 ,          0.0 ,          0.0 ,-381.7200865798554   ,-611.1263907066434  ,-381.84250097358324 ,-1374.6890254402674 ,132.41246522027706   ,458.22964246361676   ,229.34509698295406   ,7.84003802296948e-07    ,-4.9586263782062724e-05 ,-2.561947241085455e-06  ,      0.0 ,      0.0 ,      0.0 ,8.217543029017713e-07   ,-4.962401746537517e-05  ,      0.0 ,-4.8802262688411996e-05 ,2.8890931207756775e-05 ,0.8214262758762607   ,0.5011098184153282      ,-0.00124863846523093    ,-4.886391676621669e-06  ,0.00108055722686131    ,-81.73942544470877     ,0.0 ,-73.54989810576474    ,-73.54989810576474      ,        0.0 ,        0.0 , 0.0
 0.0 ,0.0 ,           0.0 ,            0.0 ,            0.0 ,            0.0 ,              0.0 ,                   0.0 ,1234.0 ,50.7687  ,-34.35045 ,           0.0 ,           0.0 ,       0.0 ,-156.7025      ,-18.6802    ,-0.00334268      ,-0.0002089566    ,                 0.0 ,             0.0 ,             0.0 ,                 0.0 ,                 0.0 ,        0.0 ,2.5057592885415394     ,            0.0 ,            0.0 ,            0.0 ,              0.0 ,                   0.0 ,  0.0 ,0.0 ,1160.3867847632225   ,1.0                ,0.0 ,-226.1164866552666  ,-455.03869216281123 ,0.16688734022076732     ,-226.18991054200734 ,          0.0 ,          0.0 ,-226.11638587377004 ,-455.0388433350561  ,-226.18991054200734 ,-907.3450887637692  ,132.14721493765816   ,302.4483629212563   ,228.88574572348344   ,-380.82182479546157   ,-609.7439812900706  ,0.16688734022076732     ,-380.89524868220235 ,          0.0 ,          0.0 ,-380.82167500102923  ,-609.744181475251   ,-380.89524868220235 ,-1371.4612014361803 ,132.14721493765816   ,457.15370106145133   ,228.88574572348344   ,1.298675175027176e-06   ,-4.982784729199447e-05  ,-2.2378742992398122e-06 ,      0.0 ,      0.0 ,      0.0 ,1.3252611991705463e-06  ,-4.9854430741487916e-05 ,      0.0 ,-4.852917060524484e-05  ,2.917375176634076e-05  ,0.9978909769499307   ,0.003652311734482442    ,-2.0630496632179565e-05 ,-2.510674683315398e-07  ,0.0023108649720509954  ,-153.6038961329678     ,0.0 ,-1.101429669067161    ,-1.101429669067161      ,        0.0 ,        0.0 , 0.0
 0.0 ,0.0 ,           0.0 ,            0.0 ,            0.0 ,            0.0 ,              0.0 ,                   0.0 ,1235.0 ,52.71981 ,-34.27649 ,           0.0 ,           0.0 ,       0.0 ,-156.0031      ,-18.67619   ,0.0003668389     ,0.0005343381     ,                 0.0 ,             0.0 ,             0.0 ,                 0.0 ,                 0.0 ,        0.0 ,3.727888761040975      ,            0.0 ,            0.0 ,            0.0 ,              0.0 ,                   0.0 ,  0.0 ,0.0 ,1169.345738168004    ,1.0                ,0.0 ,-225.74210527738964 ,-453.89715632742417 ,0.22040113232059577     ,-225.8150062362115  ,          0.0 ,          0.0 ,-225.74190284392975 ,-453.8974067720962  ,-225.8150062362115  ,-905.4542950521492  ,131.70456285791582   ,301.818107421091    ,228.11900223202562   ,-380.29695490300486   ,-608.4520059530394  ,0.22040113232059577     ,-380.3698806394907  ,          0.0 ,          0.0 ,-380.2967524695449   ,-608.4522563977114  ,-380.3698806394907  ,-1369.118686183943  ,131.70456285791582   ,456.37292983558234   ,228.11900223202562   ,1.7244654242364794e-06  ,-4.467132051177392e-05  ,-3.2511135274652e-06    ,      0.0 ,      0.0 ,      0.0 ,1.7993569644981153e-06  ,-4.474620572447876e-05  ,      0.0 ,-4.294685238398329e-05  ,2.637140807425153e-05  ,0.9025559040949412   ,0.270310785883921       ,-0.0015558178177195725  ,-6.195499437541207e-06  ,0.0018004680049031056  ,-114.8336315044537     ,0.0 ,-39.71964217286652    ,-39.71964217286652      ,        0.0 ,        0.0 , 0.0
 0.0 ,0.0 ,           0.0 ,            0.0 ,            0.0 ,            0.0 ,              0.0 ,                   0.0 ,1236.0 ,54.72356 ,-34.1729  ,           0.0 ,           0.0 ,       0.0 ,-155.0079      ,-18.67211   ,0.008092777      ,0.0002211095     ,                 0.0 ,             0.0 ,             0.0 ,                 0.0 ,                 0.0 ,        0.0 ,2.0777164585764387     ,            0.0 ,            0.0 ,            0.0 ,              0.0 ,                   0.0 ,  0.0 ,0.0 ,1175.5432726363597   ,1.0                ,0.0 ,-225.13223128041722 ,-453.47556689040346 ,0.8464500688287382      ,-225.5264199384127  ,          0.0 ,          0.0 ,-225.12772110387888 ,-453.48007706694176 ,-225.5264199384127  ,-904.1342378067376  ,131.72445021492945   ,301.37810500484176  ,228.15343036263738   ,-378.4669798607974    ,-606.8103154707836  ,0.8464500688287382      ,-378.8611913110053  ,          0.0 ,          0.0 ,-378.462469684259    ,-606.814825647322   ,-378.8611913110053  ,-1364.1382809061442 ,131.72445021492945   ,454.7128338877177    ,228.15343036263738   ,2.3553591592322654e-06  ,-4.678699201294498e-05  ,-1.3344715697937611e-06 ,      0.0 ,      0.0 ,      0.0 ,2.396293500770957e-06   ,-4.6827922261642426e-05 ,      0.0 ,-4.443163001974068e-05  ,2.7754877340737805e-05 ,0.9294624689627895   ,0.19516777330886995     ,-0.001127491573765387   ,-4.484778988481491e-06  ,0.0018072812324725672  ,-124.58147594714532    ,0.0 ,-28.752131840652808   ,-28.752131840652808     ,        0.0 ,        0.0 , 0.0
 0.0 ,0.0 ,           0.0 ,            0.0 ,            0.0 ,            0.0 ,              0.0 ,                   0.0 ,1237.0 ,56.83216 ,-33.99041 ,           0.0 ,           0.0 ,       0.0 ,-153.2255      ,-18.66785   ,-0.00625925      ,-0.002152747     ,                 0.0 ,             0.0 ,             0.0 ,                 0.0 ,                 0.0 ,        0.0 ,1.2912363286562178     ,            0.0 ,            0.0 ,            0.0 ,              0.0 ,                   0.0 ,  0.0 ,0.0 ,1171.4192299351996   ,0.9999999999999999 ,0.0 ,-224.7052361098648  ,-451.58183201644033 ,0.9955257392209911      ,-224.86654139884817 ,          0.0 ,          0.0 ,-224.70064454015255 ,-451.5864235861526  ,-224.86654139884817 ,-901.1536095251533  ,130.94483973517896   ,300.3845638488284   ,226.80315810950611   ,-376.6289139254194    ,-603.5054627296939  ,0.9955257392209911      ,-376.7901721121018  ,          0.0 ,          0.0 ,-376.62427525340615  ,-603.5101014017071  ,-376.7901721121018  ,-1356.9243969078213 ,130.94483973517896   ,452.308194562082     ,226.80315810950611   ,2.3592567705992403e-06  ,-3.703598902741937e-05  ,-4.275286754910471e-07  ,      0.0 ,      0.0 ,      0.0 ,2.3622027087244013e-06  ,-3.703893592389834e-05  ,      0.0 ,-3.467673262231823e-05  ,2.2098848558674042e-05 ,0.935224908448276    ,0.17731247113897358     ,-0.00036686248932129374 ,-1.1807330256433296e-05 ,0.002474221204435581   ,-126.53584543507873    ,0.0 ,-25.387425505249883   ,-25.387425505249883     ,        0.0 ,        0.0 , 0.0
 0.0 ,0.0 ,           0.0 ,            0.0 ,            0.0 ,            0.0 ,              0.0 ,                   0.0 ,1238.0 ,58.96127 ,-33.86142 ,           0.0 ,           0.0 ,       0.0 ,-151.9782      ,-18.6636    ,-0.02084902      ,-0.0009682355    ,                 0.0 ,             0.0 ,             0.0 ,                 0.0 ,                 0.0 ,        0.0 ,2.568783119642326      ,            0.0 ,            0.0 ,            0.0 ,              0.0 ,                   0.0 ,  0.0 ,0.0 ,1174.3612344684336   ,1.0                ,0.0 ,-223.87102260661186 ,-449.32443424536984 ,0.5722704251402615      ,-224.1228780314902  ,          0.0 ,          0.0 ,-223.8694173574632  ,-449.3260963728305  ,-224.1228780314902  ,-897.3183917617837  ,130.09475476217645   ,299.1061563128406   ,225.33077740415044   ,-375.33307352925283   ,-600.7863851680108  ,0.5722704251402615      ,-375.5848517773932  ,          0.0 ,          0.0 ,-375.33139110336623  ,-600.7880675938975  ,-375.5848517773932  ,-1351.7042329382327 ,130.09475476217645   ,450.5681072354816    ,225.33077740415044   ,2.6385976157084723e-06  ,-3.407493581541139e-05  ,-3.4917108059351215e-06 ,      0.0 ,      0.0 ,      0.0 ,2.7418020663916094e-06  ,-3.41781407122327e-05   ,      0.0 ,-3.143633994262507e-05  ,2.0641725734193875e-05 ,1.0                  ,-0.004801254230224883   ,-1.9520551570483866e-05 ,0.0                     ,0.004801295611156565   ,-151.46195092264102    ,0.0 ,0.0                   ,0.0                     ,        0.0 ,        0.0 , 0.0
 0.0 ,0.0 ,           0.0 ,            0.0 ,            0.0 ,            0.0 ,              0.0 ,                   0.0 ,1239.0 ,61.06699 ,-33.93699 ,           0.0 ,           0.0 ,       0.0 ,-152.7755      ,-18.65944   ,-0.01100119      ,0.0009488206     ,                 0.0 ,             0.0 ,             0.0 ,                 0.0 ,                 0.0 ,        0.0 ,2.5078380734569015     ,            0.0 ,            0.0 ,            0.0 ,              0.0 ,                   0.0 ,  0.0 ,0.0 ,1144.0687335710481   ,1.0                ,0.0 ,-225.7382854320796  ,-451.24383792950965 ,0.7575025996953768      ,-225.42494614423885 ,          0.0 ,          0.0 ,-225.73067830371258 ,-451.25146269240156 ,-225.42494614423885 ,-902.4070871403528  ,130.29326623673464   ,300.8023627334122   ,225.6746170652778    ,-377.44425091648793   ,-602.9497199885593  ,0.7575025996953768      ,-377.13089399412235 ,          0.0 ,          0.0 ,-377.4366261535961   ,-602.9573447514512  ,-377.13089399412235 ,-1357.5244707063187 ,130.29326623673464   ,452.5082447924618    ,225.6746170652778    ,-7.904711913481179e-07  ,-3.8659027618521264e-05 ,-2.6265409146785413e-06 ,      0.0 ,      0.0 ,      0.0 ,-7.327188362938674e-07  ,-3.871677996297667e-05  ,      0.0 ,-3.944949589421585e-05  ,2.221773019634198e-05  ,0.9406775191882514   ,0.16234911640106864     ,-0.0004205258852222556  ,-3.266084439305061e-06  ,0.0033973211335684393  ,-132.03442501582774    ,0.0 ,-19.671049427379096   ,-19.671049427379096     ,        0.0 ,        0.0 , 0.0
 0.0 ,0.0 ,           0.0 ,            0.0 ,            0.0 ,            0.0 ,              0.0 ,                   0.0 ,1240.0 ,63.13738 ,-34.05444 ,           0.0 ,           0.0 ,       0.0 ,-153.9906      ,-18.65538   ,-0.005221334     ,0.0009786503     ,                 0.0 ,             0.0 ,             0.0 ,                 0.0 ,                 0.0 ,        0.0 ,2.2298111032388688     ,            0.0 ,            0.0 ,            0.0 ,              0.0 ,                   0.0 ,  0.0 ,0.0 ,1130.9941394905995   ,1.0                ,0.0 ,-227.29180041206791 ,-451.7060585697026  ,1.1213858857876289      ,-226.24990642475572 ,          0.0 ,          0.0 ,-227.27238770955054 ,-451.7254712722199  ,-226.24990642475572 ,-905.247741059289   ,129.88465981477145   ,301.74925513550875  ,224.96682237959078   ,-380.5485541606026    ,-604.9627366654747  ,1.1213858857876289      ,-379.50661284494277 ,          0.0 ,          0.0 ,-380.5290697825002   ,-604.9821966963397  ,-379.50661284494277 ,-1365.0176430450124 ,129.88465981477145   ,455.0059805596285    ,224.96682237959078   ,-2.819827490343974e-06  ,-3.432533438052011e-05  ,-2.972910327760781e-06  ,      0.0 ,      0.0 ,      0.0 ,-2.6547573137813883e-06 ,-3.4490404584405234e-05 ,      0.0 ,-3.714516065713189e-05  ,1.9199329170472194e-05 ,1.0                  ,-0.004231590637085126   ,-2.138580042859026e-05  ,0.0                     ,0.004231646904753228   ,-153.2567254241197     ,0.0 ,0.0                   ,0.0                     ,        0.0 ,        0.0 , 0.0
 0.0 ,0.0 ,           0.0 ,            0.0 ,            0.0 ,            0.0 ,              0.0 ,                   0.0 ,1241.0 ,65.20268 ,-34.09446 ,           0.0 ,           0.0 ,       0.0 ,-154.431       ,-18.65136   ,-0.02504428      ,-0.005510566     ,                 0.0 ,             0.0 ,             0.0 ,                 0.0 ,                 0.0 ,        0.0 ,3.1843439383686336     ,            0.0 ,            0.0 ,            0.0 ,              0.0 ,                   0.0 ,  0.0 ,0.0 ,1156.8665223923608   ,1.0                ,0.0 ,-229.39212086022422 ,-451.9799786866745  ,0.13956185064803067     ,-226.81919520312633 ,          0.0 ,          0.0 ,-229.38833759014807 ,-451.9837619567505  ,-226.81919520312633 ,-908.191294750025   ,129.26430471875582   ,302.7304133640931   ,223.8923226671548    ,-382.87491006599123   ,-605.4627651334824  ,0.13956185064803067     ,-380.3019816499342  ,          0.0 ,          0.0 ,-382.8711361114066   ,-605.4665511625176  ,-380.3019816499342  ,-1368.6394867128165 ,129.26430471875582   ,456.2132572276058    ,223.8923226671548    ,-3.444032562629172e-06  ,-3.6839261294143593e-05 ,-3.394494643449958e-06  ,      0.0 ,      0.0 ,      0.0 ,-3.28613263390261e-06   ,-3.699715922287016e-05  ,      0.0 ,-4.028329449257336e-05  ,2.0479516982793504e-05 ,0.8006883641703157   ,0.5440146273147299      ,-0.0013149720420104205  ,-1.1716675164390614e-05 ,0.0025628661824375534  ,-74.43417553476756     ,0.0 ,-79.0473548456956     ,-79.0473548456956       ,        0.0 ,        0.0 , 0.0
 0.0 ,0.0 ,           0.0 ,            0.0 ,            0.0 ,            0.0 ,              0.0 ,                   0.0 ,1242.0 ,67.41253 ,-33.73318 ,           0.0 ,           0.0 ,       0.0 ,-150.8611      ,-18.64707   ,-0.02435053      ,-0.0008640878    ,                 0.0 ,             0.0 ,             0.0 ,                 0.0 ,                 0.0 ,        0.0 ,3.43851234541051       ,            0.0 ,            0.0 ,            0.0 ,              0.0 ,                   0.0 ,  0.0 ,0.0 ,1213.5631723689662   ,1.0                ,0.0 ,-231.65857175435218 ,-453.60513984311103 ,-2.863172916695773      ,-227.67001880589714 ,          0.0 ,          0.0 ,-231.56330610296604 ,-453.70037275277343 ,-227.67001880589714 ,-912.9337491196155  ,129.3902629533632    ,304.31122885070863  ,224.11050806768063   ,-380.6281049315096    ,-602.5747215622896  ,-2.863172916695773      ,-376.6396005250756  ,          0.0 ,          0.0 ,-380.5328878221445   ,-602.6699059299308  ,-376.6396005250756  ,-1359.8420802516823 ,129.3902629533632    ,453.28081056988714   ,224.11050806768063   ,-3.7327324811629245e-06 ,-4.771566618317634e-05  ,-2.784661115723793e-06  ,      0.0 ,      0.0 ,      0.0 ,-3.683018489522934e-06  ,-4.776537911062909e-05  ,      0.0 ,-5.1448399647059884e-05 ,2.6578848085773167e-05 ,0.7552165484657929   ,0.6717849787364346      ,-0.0015976035365674133  ,-1.4446824099573125e-05 ,0.0007978323169567193  ,-50.27237849130822     ,0.0 ,-98.69561437545354    ,-98.69561437545354      ,        0.0 ,        0.0 , 0.0
 0.0 ,0.0 ,           0.0 ,            0.0 ,            0.0 ,            0.0 ,              0.0 ,                   0.0 ,1243.0 ,68.59099 ,-34.96349 ,           0.0 ,           0.0 ,       0.0 ,-163.1858      ,-18.64491   ,-0.002591885     ,0.001688875      ,                 0.0 ,             0.0 ,             0.0 ,                 0.0 ,                 0.0 ,        0.0 ,2.1275212223487827     ,            0.0 ,            0.0 ,            0.0 ,              0.0 ,                   0.0 ,  0.0 ,0.0 ,1151.3494780508872   ,1.0                ,0.0 ,-239.12320810138314 ,-468.42207294102275 ,-6.38299383893043       ,-234.96535582178166 ,          0.0 ,          0.0 ,-238.93998021712645 ,-468.60526324123873 ,-234.96535582178166 ,-942.510676434209   ,133.76058066975307   ,314.1702261400633   ,231.68010783653304   ,-400.32885282869347   ,-629.6277176683332  ,-6.38299383893043       ,-396.1710233950298  ,          0.0 ,          0.0 ,-400.1456249444368   ,-629.8109079685491  ,-396.1710233950298  ,-1426.127441061499  ,133.76058066975307   ,475.3758708673736    ,231.68010783653304   ,-3.3665690533308023e-06 ,-4.7956591666543924e-05 ,-2.9632987525940193e-06 ,      0.0 ,      0.0 ,      0.0 ,-3.3111946697078305e-06 ,-4.8011965343289834e-05 ,      0.0 ,-5.132316242855769e-05  ,2.681524438098994e-05  ,0.7754897116223007   ,0.6232438213169756      ,-0.0013454880163921183  ,-1.0214804481632397e-05 ,0.0009158272336507615  ,-57.70786922159827     ,0.0 ,-103.49644010060678   ,-103.49644010060678     ,        0.0 ,        0.0 , 0.0
 0.0 ,0.0 ,           0.0 ,            0.0 ,            0.0 ,            0.0 ,              0.0 ,                   0.0 ,1244.0 ,70.09885 ,-34.84383 ,           0.0 ,           0.0 ,       0.0 ,-162.0178      ,-18.64205   ,0.02141675       ,0.0004046767     ,                 0.0 ,             0.0 ,             0.0 ,                 0.0 ,                 0.0 ,        0.0 ,2.0141373926921453     ,            0.0 ,            0.0 ,            0.0 ,              0.0 ,                   0.0 ,  0.0 ,0.0 ,1158.3445428016082   ,1.0                ,0.0 ,-239.7081647364425  ,-469.29775592826843 ,-8.239345140201323      ,-235.68666146037094 ,          0.0 ,          0.0 ,-239.40956036068957 ,-469.59636030402135 ,-235.68666146037094 ,-944.6925821250819  ,133.98701524321845   ,314.89751075428876  ,232.07232237811922   ,-400.92220805001136   ,-630.5117986787345  ,-8.239345140201323      ,-396.90075434862155 ,          0.0 ,          0.0 ,-400.6236535364739   ,-630.8104030544874  ,-396.90075434862155 ,-1428.3350061352621 ,133.98701524321845   ,476.11160336697037   ,232.07232237811922   ,-3.27485082773168e-06   ,-3.4889060165379566e-05 ,-3.930093526447321e-06  ,      0.0 ,      0.0 ,      0.0 ,-3.081515233364391e-06  ,-3.508239524171522e-05  ,      0.0 ,-3.816390998196883e-05  ,1.9434159503602316e-05 ,0.8205121755976561   ,0.49858071389762665     ,-0.001112627266306334   ,-8.856351932487795e-06  ,0.002797419377174914   ,-76.7604619692348      ,0.0 ,-84.45250827899503    ,-84.45250827899503      ,        0.0 ,        0.0 , 0.0
 0.0 ,0.0 ,           0.0 ,            0.0 ,            0.0 ,            0.0 ,              0.0 ,                   0.0 ,1245.0 ,71.7931  ,-34.74273 ,           0.0 ,           0.0 ,       0.0 ,-161.0386      ,-18.63887   ,0.06926698       ,0.001239165      ,                 0.0 ,             0.0 ,             0.0 ,                 0.0 ,                 0.0 ,        0.0 ,3.502332264549368      ,            0.0 ,            0.0 ,            0.0 ,              0.0 ,                   0.0 ,  0.0 ,0.0 ,1158.052487228011    ,1.0                ,0.0 ,-239.3451266927189  ,-472.71872499803527 ,-10.608074589399546     ,-236.83669653935823 ,          0.0 ,          0.0 ,-238.85668643521504 ,-473.20716525553917 ,-236.83669653935823 ,-948.9005482301125  ,135.89543287931562   ,316.3001666946002   ,235.37783933052157   ,-399.6727497358525    ,-633.0462968356654  ,-10.608074589399546     ,-397.1643195824919  ,          0.0 ,          0.0 ,-399.1843579487529   ,-633.5347370931693  ,-397.1643195824919  ,-1429.8831101264927 ,135.89543287931562   ,476.6277870026346    ,235.37783933052157   ,4.358244653306957e-07   ,-3.639102123342219e-05  ,-5.9254379770699015e-06 ,      0.0 ,      0.0 ,      0.0 ,7.0942013330685e-07     ,-3.6664615767884314e-05 ,      0.0 ,-3.59551952045754e-05   ,2.1447199083609908e-05 ,0.8189409431481255   ,0.5125769030742783      ,-0.0012802972407176384  ,-1.8779888999211127e-05 ,0.0027193346048205906  ,-74.61763723000361     ,0.0 ,-85.70869319877387    ,-85.70869319877387      ,        0.0 ,        0.0 , 0.0
 0.0 ,0.0 ,           0.0 ,            0.0 ,            0.0 ,            0.0 ,              0.0 ,                   0.0 ,1246.0 ,73.46989 ,-34.34008 ,           0.0 ,           0.0 ,       0.0 ,-157.0435      ,-18.63573   ,0.08482405       ,0.005753206      ,                 0.0 ,             0.0 ,             0.0 ,                 0.0 ,                 0.0 ,        0.0 ,0.9470105151252652     ,            0.0 ,            0.0 ,            0.0 ,              0.0 ,                   0.0 ,  0.0 ,0.0 ,1167.717108272401    ,1.0                ,0.0 ,-238.4799536968236  ,-475.57367590862805 ,-13.289921793869791     ,-237.75948826098588 ,          0.0 ,          0.0 ,-237.69221071178106 ,-476.36146322766126 ,-237.75948826098588 ,-951.8131178664376  ,137.77818641114345   ,317.27104306615195  ,238.63883379435086   ,-395.0829886065858    ,-632.1767521358461  ,-13.289921793869791     ,-394.3625231707481  ,          0.0 ,          0.0 ,-394.2952456215433   ,-632.9644981374236  ,-394.3625231707481  ,-1421.6220956268216 ,137.77818641114345   ,473.8741192933701    ,238.63883379435086   ,1.8600414576721161e-06  ,-1.8086980408856644e-05 ,-2.775314980229758e-06  ,      0.0 ,      0.0 ,      0.0 ,1.9562506595013347e-06  ,-1.8183188431492884e-05 ,      0.0 ,-1.622693738898234e-05  ,1.1105976961351481e-05 ,0.6462258853406211   ,1.0                     ,-0.002585845675105186   ,-0.00010333450408831307 ,0.0                    ,0.0025888665061587907  ,0.0 ,-156.60303490976221   ,-156.60303490976221     ,        0.0 ,        0.0 , 0.0
 0.0 ,0.0 ,           0.0 ,            0.0 ,            0.0 ,            0.0 ,              0.0 ,                   0.0 ,1247.0 ,74.86802 ,-34.93644 ,           0.0 ,           0.0 ,       0.0 ,-163.0318      ,-18.63326   ,0.07301368       ,-0.01421228      ,                 0.0 ,             0.0 ,             0.0 ,                 0.0 ,                 0.0 ,        0.0 ,2.4979552996853407     ,            0.0 ,            0.0 ,            0.0 ,              0.0 ,                   0.0 ,  0.0 ,0.0 ,1123.730880258171    ,1.0                ,0.0 ,-239.07704729377699 ,-482.76689850682817 ,-10.141719853818618     ,-240.79292130561828 ,          0.0 ,          0.0 ,-238.64226856178078 ,-483.20177331551685 ,-240.79292130561828 ,-962.6368671062235  ,140.58170970026677   ,320.8789223687411   ,243.4946197427188    ,-400.9588234537733    ,-644.6487497690594  ,-10.141719853818618     ,-402.67469746561454 ,          0.0 ,          0.0 ,-400.52404472177705  ,-645.0835494755131  ,-402.67469746561454 ,-1448.28193361182   ,140.58170970026677   ,482.7607736309724    ,243.4946197427188    ,4.52220375253708e-06    ,-4.355902119654182e-05  ,-6.386297757176791e-06  ,      0.0 ,      0.0 ,      0.0 ,4.736055504167628e-06   ,-4.377287099689524e-05  ,      0.0 ,-3.903681495144984e-05  ,2.6744935132863834e-05 ,0.6536108388431598   ,1.0                     ,-0.003280142729407522   ,-6.644610759318548e-05  ,0.0                    ,0.0032808977425496585  ,0.0 ,-161.88177615999626   ,-161.88177615999626     ,        0.0 ,        0.0 , 0.0
 0.0 ,0.0 ,           0.0 ,            0.0 ,            0.0 ,            0.0 ,              0.0 ,                   0.0 ,1248.0 ,75.90407 ,-33.98434 ,           0.0 ,           0.0 ,       0.0 ,-153.5309      ,-18.63125   ,0.1030618        ,0.03051112       ,                 0.0 ,             0.0 ,             0.0 ,                 0.0 ,                 0.0 ,        0.0 ,3.402572320496235      ,            0.0 ,            0.0 ,            0.0 ,              0.0 ,                   0.0 ,  0.0 ,0.0 ,1161.1132189868974   ,1.0                ,0.0 ,-235.09752528289295 ,-478.19069178301424 ,-10.3902226944235       ,-238.26946715599013 ,          0.0 ,          0.0 ,-234.61131154817198 ,-478.67699077652173 ,-238.26946715599013 ,-951.5576842218973  ,139.8694813701928    ,317.1858614072991   ,242.26104062765165   ,-387.08701662895373   ,-630.1802130004589  ,-10.3902226944235       ,-390.25895850205086 ,          0.0 ,          0.0 ,-386.60080289423274  ,-630.6664821225825  ,-390.25895850205086 ,-1407.5259542936712 ,139.8694813701928    ,469.17538262474386   ,242.26104062765165   ,5.318696590161106e-06   ,-5.0437420061053465e-05 ,-6.668494206479458e-06  ,      0.0 ,      0.0 ,      0.0 ,5.523116051366777e-06   ,-5.0641839291629256e-05 ,      0.0 ,-4.511872349542267e-05  ,3.09572779959626e-05   ,0.6593773722055691   ,1.0                     ,-0.0027506138608066498  ,-7.717653591660946e-05  ,0.0                    ,0.002751805151522833   ,0.0 ,-151.9894913460608    ,-151.9894913460608      ,        0.0 ,        0.0 , 0.0
 0.0 ,0.0 ,           0.0 ,            0.0 ,            0.0 ,            0.0 ,              0.0 ,                   0.0 ,1249.0 ,78.24893 ,-33.90639 ,           0.0 ,           0.0 ,       0.0 ,-152.7929      ,-18.6271    ,0.1000365        ,-0.009773852     ,                 0.0 ,             0.0 ,             0.0 ,                 0.0 ,                 0.0 ,        0.0 ,1.932377474836275      ,            0.0 ,            0.0 ,            0.0 ,              0.0 ,                   0.0 ,  0.0 ,0.0 ,1153.8005411330282   ,1.0                ,0.0 ,-231.75788582211706 ,-473.5673526506434  ,-6.033670627750695      ,-236.25891543347137 ,          0.0 ,          0.0 ,-231.4189231518701  ,-473.9063608292134  ,-236.25891543347137 ,-941.5841539062319  ,138.6258802089238    ,313.8613513020773   ,240.10703484315133   ,-383.6802125642932    ,-625.4897310833827  ,-6.033670627750695      ,-388.18124217564747 ,          0.0 ,          0.0 ,-383.3412498940462   ,-625.8286875713895  ,-388.18124217564747 ,-1397.3513093922593 ,138.6258802089238    ,465.7836780442534    ,240.10703484315133   ,3.0120001243992335e-06  ,-2.691898407148514e-05  ,-3.250120049849878e-06  ,      0.0 ,      0.0 ,      0.0 ,3.1228679587924745e-06  ,-2.7029852563944588e-05 ,      0.0 ,-2.390698520029104e-05  ,1.6580988963942603e-05 ,0.6701341142405534   ,0.971921071748018       ,-0.001950612496013477   ,-0.00016128358395504677 ,6.804902818599737e-05  ,-3.196940322136609     ,0.0 ,-148.72343227876132   ,-148.72343227876132     ,        0.0 ,        0.0 , 0.0
 0.0 ,0.0 ,           0.0 ,            0.0 ,            0.0 ,            0.0 ,              0.0 ,                   0.0 ,1250.0 ,80.72134 ,-34.00782 ,           0.0 ,           0.0 ,       0.0 ,-153.8484      ,-18.62299   ,-0.006237249     ,-0.0177642       ,                 0.0 ,             0.0 ,             0.0 ,                 0.0 ,                 0.0 ,        0.0 ,1.3398013081732048     ,            0.0 ,            0.0 ,            0.0 ,              0.0 ,                   0.0 ,  0.0 ,0.0 ,1119.8053102126235   ,1.0                ,0.0 ,-229.94397624983566 ,-473.3105446581791  ,3.866791743785407       ,-236.0048955132415  ,          0.0 ,          0.0 ,-229.64543473796576 ,-473.60908617004895 ,-236.0048955132415  ,-939.2594164212562  ,139.0639879741721    ,313.08644672243145  ,240.86587360871442   ,-383.2208820347289    ,-626.5875050750205  ,3.866791743785407       ,-389.2818012981347  ,          0.0 ,          0.0 ,-382.9223642688971   ,-626.8859919549421  ,-389.2818012981347  ,-1399.0905553979499 ,139.0639879741721    ,466.3633525073247    ,240.86587360871442   ,1.7749012087022901e-06  ,-2.1814038996013204e-05 ,1.5186947606364438e-06  ,      0.0 ,      0.0 ,      0.0 ,1.8175339413576615e-06  ,-2.1856670020147727e-05 ,      0.0 ,-2.0039135972588843e-05 ,1.3176036193020471e-05 ,0.7323802000500149   ,0.78325659169165        ,-0.0017530885386449389  ,-0.00017364058626913065 ,0.000525275686049839   ,-24.690794833733563    ,0.0 ,-128.584393214714     ,-128.584393214714       ,        0.0 ,        0.0 , 0.0
 0.0 ,0.0 ,           0.0 ,            0.0 ,            0.0 ,            0.0 ,              0.0 ,                   0.0 ,1251.0 ,82.90261 ,-34.43579 ,           0.0 ,           0.0 ,       0.0 ,-158.1608      ,-18.61971   ,-0.1026777       ,0.01838096       ,                 0.0 ,             0.0 ,             0.0 ,                 0.0 ,                 0.0 ,        0.0 ,2.0575529593365762     ,            0.0 ,            0.0 ,            0.0 ,              0.0 ,                   0.0 ,  0.0 ,0.0 ,1120.884014709377    ,1.0                ,0.0 ,-233.61517946925497 ,-476.29343271792675 ,8.965015196391843       ,-237.7757535553728  ,          0.0 ,          0.0 ,-233.14543268536812 ,-476.76320923659705 ,-237.7757535553728  ,-947.6843954773381  ,139.3364711436456    ,315.89480041087796  ,241.3378742139089    ,-391.2045128544024    ,-633.8827661030741  ,8.965015196391843       ,-395.36508694052026 ,          0.0 ,          0.0 ,-390.7348123562447   ,-634.3525426217445  ,-395.36508694052026 ,-1420.4526766936465 ,139.3364711436456    ,473.484104061242     ,241.3378742139089    ,3.1251973570487677e-06  ,-3.598686755744967e-05  ,1.7792608417728828e-06  ,      0.0 ,      0.0 ,      0.0 ,3.225803817188867e-06   ,-3.6087473396578606e-05 ,      0.0 ,-3.286166971102196e-05  ,2.1832646139753763e-05 ,0.8427400234961719   ,0.460834921451654       ,-0.0017502066782924216  ,-8.644998532051645e-05  ,0.002029689298187351   ,-81.23217386124283     ,0.0 ,-76.35557695419357    ,-76.35557695419357      ,        0.0 ,        0.0 , 0.0
 0.0 ,0.0 ,           0.0 ,            0.0 ,            0.0 ,            0.0 ,              0.0 ,                   0.0 ,1252.0 ,84.46356 ,-35.02281 ,           0.0 ,           0.0 ,       0.0 ,-164.0514      ,-18.61767   ,-0.05444134      ,-0.001201652     ,                 0.0 ,             0.0 ,             0.0 ,                 0.0 ,                 0.0 ,        0.0 ,3.3392918813691232     ,            0.0 ,            0.0 ,            0.0 ,              0.0 ,                   0.0 ,  0.0 ,0.0 ,1118.491914470029    ,1.0                ,0.0 ,-237.84672138945143 ,-480.13788168697124 ,11.875663386514846      ,-239.9991668158508  ,          0.0 ,          0.0 ,-237.23728296373633 ,-480.74737124278283 ,-239.9991668158508  ,-957.9838169746124  ,139.800706048437     ,319.327959665889    ,242.14196195764373   ,-401.93352806690564   ,-644.2246734237101  ,11.875663386514846      ,-404.08595450483216 ,          0.0 ,          0.0 ,-401.32407065271775  ,-644.8341779202372  ,-404.08595450483216 ,-1450.2443577830122 ,139.800706048437     ,483.4146853318159    ,242.14196195764373   ,2.8391727819992783e-06  ,-2.758394001995923e-05  ,-2.331020815735228e-09  ,      0.0 ,      0.0 ,      0.0 ,2.8748147265407935e-06  ,-2.761958309603226e-05  ,      0.0 ,-2.4744771862916785e-05 ,1.6851068424936488e-05 ,0.8818243325949027   ,0.33590549128143293     ,-0.0010078530847371981  ,-9.670533947997984e-05  ,0.0033962134959979076  ,-112.46213877348721    ,0.0 ,-51.62391176901643    ,-51.62391176901643      ,        0.0 ,        0.0 , 0.0
 0.0 ,0.0 ,           0.0 ,            0.0 ,            0.0 ,            0.0 ,              0.0 ,                   0.0 ,1253.0 ,85.72745 ,-34.2059  ,           0.0 ,           0.0 ,       0.0 ,-155.9036      ,-18.61554   ,-0.1113857       ,-0.009329921     ,                 0.0 ,             0.0 ,             0.0 ,                 0.0 ,                 0.0 ,        0.0 ,4.0                    ,            0.0 ,            0.0 ,            0.0 ,              0.0 ,                   0.0 ,  0.0 ,0.0 ,1137.3522587369746   ,1.0                ,0.0 ,-237.0693513845207  ,-476.47570213677045 ,14.728073139793723      ,-237.72731274402625 ,          0.0 ,          0.0 ,-236.15055271263188 ,-477.3944481770061  ,-237.72731274402625 ,-951.2723188969705  ,138.82999190708207   ,317.09077472009227  ,240.46064784955817   ,-391.24046810446475   ,-630.6467680508998  ,14.728073139793723      ,-391.8983820956234  ,          0.0 ,          0.0 ,-390.321622064229    ,-631.5655667227886  ,-391.8983820956234  ,-1413.7860036442796 ,138.82999190708207   ,471.26184063422164   ,240.46064784955817   ,3.0945280308319443e-06  ,-4.689165717115948e-05  ,2.910566643255721e-06   ,      0.0 ,      0.0 ,      0.0 ,3.1389908877141957e-06  ,-4.693611968216696e-05  ,      0.0 ,-4.3797129231619466e-05 ,2.806063164140318e-05  ,0.6583366150089143   ,0.9817049445480828      ,-0.0021715769619914975  ,-0.0002713172805628329  ,3.755194781044206e-05  ,-2.8577010776515186    ,0.0 ,-151.3112346381264    ,-151.3112346381264      ,        0.0 ,        0.0 , 0.0
 0.0 ,0.0 ,           0.0 ,            0.0 ,            0.0 ,            0.0 ,              0.0 ,                   0.0 ,1254.0 ,87.73678 ,-33.46486 ,           0.0 ,           0.0 ,       0.0 ,-148.5236      ,-18.6125    ,-0.151911        ,-0.007870152     ,                 0.0 ,             0.0 ,             0.0 ,                 0.0 ,                 0.0 ,        0.0 ,3.7345080089485645     ,            0.0 ,            0.0 ,            0.0 ,              0.0 ,                   0.0 ,  0.0 ,0.0 ,1143.4838601920246   ,1.0                ,0.0 ,-236.37265150970387 ,-465.1175603176581  ,13.217272421707086      ,-233.21233133715242 ,          0.0 ,          0.0 ,-235.5798795233698  ,-465.91028856544085 ,-233.21233133715242 ,-934.7024869030658  ,133.68106191509145   ,311.5675003097891   ,231.5424066912143    ,-383.3161237818973    ,-612.0610193152519  ,13.217272421707086      ,-380.15574734789715 ,          0.0 ,          0.0 ,-382.5232955341146   ,-612.8537913015859  ,-380.15574734789715 ,-1375.5328874382376 ,133.68106191509145   ,458.510959307383     ,231.5424066912143    ,-1.3092566394164864e-06 ,-4.2554828918429176e-05 ,2.5552754865787176e-06  ,      0.0 ,      0.0 ,      0.0 ,-1.2675452629673817e-06 ,-4.259654332494638e-05  ,      0.0 ,-4.386408774477323e-05  ,2.42756461194666e-05   ,0.8005209585400171   ,0.5617360390625188      ,-0.001598509799411021   ,-0.00023550011575812903 ,0.0008995690355558493  ,-68.50797391009971     ,0.0 ,-78.43407352860112    ,-78.43407352860112      ,        0.0 ,        0.0 , 0.0
 0.0 ,0.0 ,           0.0 ,            0.0 ,            0.0 ,            0.0 ,              0.0 ,                   0.0 ,1255.0 ,90.19223 ,-33.15764 ,           0.0 ,           0.0 ,       0.0 ,-145.4811      ,-18.60953   ,-0.04702391      ,0.01129876       ,                 0.0 ,             0.0 ,             0.0 ,                 0.0 ,                 0.0 ,        0.0 ,2.5042390909648358     ,            0.0 ,            0.0 ,            0.0 ,              0.0 ,                   0.0 ,  0.0 ,0.0 ,1137.9103732339559   ,1.0                ,0.0 ,-234.31609196673705 ,-451.8401213017907  ,6.568518013487159       ,-227.7750224067559  ,          0.0 ,          0.0 ,-234.05711137972492 ,-452.09910082696507 ,-227.7750224067559  ,-913.9312816378222  ,127.74307003720168   ,304.64377777919617  ,221.25746126043543   ,-377.9924424347531    ,-595.5165177323454  ,6.568518013487159       ,-371.4513705370769  ,          0.0 ,          0.0 ,-377.7334595100459   ,-595.7754983193574  ,-371.4513705370769  ,-1344.960374757058  ,127.74307003720168   ,448.32012590951723   ,221.25746126043543   ,-4.0982922681731e-06    ,-4.2440712522019434e-05 ,2.706708023837583e-06   ,      0.0 ,      0.0 ,      0.0 ,-4.044263578929503e-06  ,-4.24947423217272e-05   ,      0.0 ,-4.6539007258296106e-05 ,2.3456066425475072e-05 ,0.991360306861935    ,0.02148397361512273     ,-0.000595922369970881   ,-1.6155300931854492e-05 ,0.001965319906842044   ,-140.52928489439785    ,0.0 ,-3.1469863862085456   ,-3.1469863862085456     ,        0.0 ,        0.0 , 0.0
 0.0 ,0.0 ,           0.0 ,            0.0 ,            0.0 ,            0.0 ,              0.0 ,                   0.0 ,1256.0 ,92.77295 ,-32.99559 ,           0.0 ,           0.0 ,       0.0 ,-143.8835      ,-18.60723   ,0.02773716       ,-0.001512244     ,                 0.0 ,             0.0 ,             0.0 ,                 0.0 ,                 0.0 ,        0.0 ,1.8416358026171644     ,            0.0 ,            0.0 ,            0.0 ,              0.0 ,                   0.0 ,  0.0 ,0.0 ,1132.314006704776    ,1.0                ,0.0 ,-230.0629481985689  ,-444.8103468845901  ,2.3655529031610487      ,-224.45804248827227 ,          0.0 ,          0.0 ,-229.97907184368506 ,-444.89429729026676 ,-224.45804248827227 ,-899.3313565658303  ,125.70922451907794   ,299.7771285576723   ,217.73477287746823   ,-374.2545297602644    ,-589.0019474406847  ,2.3655529031610487      ,-368.649568993574   ,          0.0 ,          0.0 ,-374.1705983489868   ,-589.0858237955686  ,-368.649568993574   ,-1331.9057880369278 ,125.70922451907794   ,443.9686550629741    ,217.73477287746823   ,-2.0260471790782784e-06 ,-1.3932324694778e-05    ,-1.2263149617884163e-06 ,      0.0 ,      0.0 ,      0.0 ,-1.8130591897519384e-06 ,-1.4145315037768016e-05 ,      0.0 ,-1.5958374626675966e-05 ,7.699191148207121e-06  ,0.7967891079855649   ,0.5500938201198476      ,-0.0031441941592649115  ,-0.0008239816967386844  ,0.001078616261798945   ,-57.37789440505309     ,0.0 ,-86.8111598584045     ,-86.8111598584045       ,        0.0 ,        0.0 , 0.0
 0.0 ,0.0 ,           0.0 ,            0.0 ,            0.0 ,            0.0 ,              0.0 ,                   0.0 ,1257.0 ,95.48007 ,-32.87522 ,           0.0 ,           0.0 ,       0.0 ,-142.6919      ,-18.60603   ,0.04096954       ,-0.001750524     ,                 0.0 ,             0.0 ,             0.0 ,                 0.0 ,                 0.0 ,        0.0 ,0.5429295123767663     ,            0.0 ,            0.0 ,            0.0 ,              0.0 ,                   0.0 ,  0.0 ,0.0 ,1132.0534768973748   ,1.0                ,0.0 ,-225.60727614336588 ,-442.5497119592289  ,-0.9836043286853567     ,-222.43558964836458 ,          0.0 ,          0.0 ,-225.55902312497972 ,-442.5979830752655  ,-222.43558964836458 ,-890.5925433263537  ,126.22058934556154   ,296.8641827902886   ,218.62050231007473   ,-368.52515030002127   ,-585.4675861158844  ,-0.9836043286853567     ,-365.3534457073696  ,          0.0 ,          0.0 ,-368.47687918398475  ,-585.5158391342705  ,-365.3534457073696  ,-1319.3459492017914 ,126.22058934556154   ,439.7820388492936    ,218.62050231007473   ,-3.690771483360814e-07  ,-1.8744134680596306e-06 ,-6.358929800864865e-07  ,      0.0 ,      0.0 ,      0.0 ,-3.0467774520201537e-07 ,-1.9388139570527215e-06 ,      0.0 ,-2.243491521278233e-06  ,1.0426110695626408e-06 ,0.8080385792461063   ,0.5250111225694778      ,-0.0018497135544376577  ,-0.0009288652248381922  ,0.0012898715498643096  ,-59.502026925213684    ,0.0 ,-83.41433188990814    ,-83.41433188990814      ,        0.0 ,        0.0 , 0.0
 0.0 ,0.0 ,           0.0 ,            0.0 ,            0.0 ,            0.0 ,              0.0 ,                   0.0 ,1258.0 ,97.58051 ,-34.00835 ,           0.0 ,           0.0 ,       0.0 ,-153.9919      ,-18.60915   ,0.009259022      ,-2.883188e-05    ,                 0.0 ,             0.0 ,             0.0 ,                 0.0 ,                 0.0 ,        0.0 ,1.9496083224150096     ,            0.0 ,            0.0 ,            0.0 ,              0.0 ,                   0.0 ,  0.0 ,0.0 ,1160.718843098974    ,1.0                ,0.0 ,-229.07752342360158 ,-453.1225121037577  ,-1.956042366246217      ,-227.2794252956172  ,          0.0 ,          0.0 ,-229.05402660730886 ,-453.1460067835543  ,-227.2794252956172  ,-909.4794095631845  ,129.89537758123214   ,303.1598358088961   ,224.98535697550062   ,-382.30529872956146   ,-606.3502874097176  ,-1.956042366246217      ,-380.50720273807326 ,          0.0 ,          0.0 ,-382.28180191326874  ,-606.3737842260102  ,-380.50720273807326 ,-1369.16287994828   ,129.89537758123214   ,456.38761111485604   ,224.98535697550062   ,-1.794927395827586e-06  ,-1.7999734525674393e-05 ,-1.2031061926380839e-06 ,      0.0 ,      0.0 ,      0.0 ,-1.772627048689447e-06  ,-1.80220352533898e-05   ,      0.0 ,-1.979466465362981e-05  ,9.932938672462703e-06  ,0.6366784549286453   ,1.0                     ,-0.00019321844985641145 ,-0.0018417785476346521  ,0.0                    ,0.0020046741568455323  ,0.0 ,-153.2277753059599    ,-153.2277753059599      ,        0.0 ,        0.0 , 0.0
 0.0 ,0.0 ,           0.0 ,            0.0 ,            0.0 ,            0.0 ,              0.0 ,                   0.0 ,1259.0 ,99.58235 ,-34.35845 ,           0.0 ,           0.0 ,       0.0 ,-157.4587      ,-18.61258   ,0.006674392      ,0.0005889654     ,                 0.0 ,             0.0 ,             0.0 ,                 0.0 ,                 0.0 ,        0.0 ,2.650896127845214      ,            0.0 ,            0.0 ,            0.0 ,              0.0 ,                   0.0 ,  0.0 ,0.0 ,1160.499658741918    ,1.0                ,0.0 ,-229.9238462247851  ,-457.3427578868178  ,-2.600436292230238      ,-229.15870949528394 ,          0.0 ,          0.0 ,-229.8902504853166  ,-457.37630997701143 ,-229.15870949528394 ,-916.4252898009681  ,131.55095222139985   ,305.47512331920404  ,227.8529054042328    ,-386.42656023416265   ,-613.8454718961955  ,-2.600436292230238      ,-385.6614235046615  ,          0.0 ,          0.0 ,-386.392988300613    ,-613.8790477923078  ,-385.6614235046615  ,-1385.9336119857448 ,131.55095222139985   ,461.9778373285816    ,227.8529054042328    ,-2.788029822436625e-06  ,-2.5418794290118706e-05 ,-2.4263041593548567e-06 ,      0.0 ,      0.0 ,      0.0 ,-2.694885821410086e-06  ,-2.5511938259351818e-05 ,      0.0 ,-2.8206827295165283e-05 ,1.4017901220931603e-05 ,0.7101944962023836   ,0.8013988539328541      ,-0.0005095258314371013  ,-0.001387146188529561   ,0.0006650072158079266  ,-29.549549303505177    ,0.0 ,-126.95127780629241   ,-126.95127780629241     ,        0.0 ,        0.0 , 0.0
 0.0 ,0.0 ,           0.0 ,            0.0 ,            0.0 ,            0.0 ,              0.0 ,                   0.0 ,1260.0 ,101.5456 ,-34.43893 ,           0.0 ,           0.0 ,       0.0 ,-158.2178      ,-18.61715   ,0.01117199       ,5.792272e-05     ,                 0.0 ,             0.0 ,             0.0 ,                 0.0 ,                 0.0 ,        0.0 ,1.5052056227738966     ,            0.0 ,            0.0 ,            0.0 ,              0.0 ,                   0.0 ,  0.0 ,0.0 ,1161.8740374568752   ,1.0                ,0.0 ,-229.6615150932629  ,-458.1611629984036  ,-2.45001002679507       ,-229.46951277767909 ,          0.0 ,          0.0 ,-229.63406613255185 ,-458.1885604812875  ,-229.46951277767909 ,-917.2921903907131  ,132.0035725006399    ,305.76404744905756  ,228.63684872154516   ,-386.83805127226526   ,-615.337699177406   ,-2.45001002679507       ,-386.6460489566814  ,          0.0 ,          0.0 ,-386.81060279018664  ,-615.3650971389222  ,-386.6460489566814  ,-1388.8220449728713 ,132.0035725006399    ,462.9406321502328    ,228.63684872154516   ,-3.6911554009988004e-06 ,-2.9552882247645888e-05 ,-4.349085191162948e-06  ,      0.0 ,      0.0 ,      0.0 ,-3.473173917488397e-06  ,-2.9770861230736996e-05 ,      0.0 ,-3.324403665343101e-05  ,1.6281027404574797e-05 ,0.9982854735075078   ,0.004587379641297104    ,-0.0025079083731121598  ,-7.736700906780686e-06  ,0.0026069903877433305  ,-156.28958647633152    ,0.0 ,-0.8869346284388703   ,-0.8869346284388703     ,        0.0 ,        0.0 , 0.0
 0.0 ,0.0 ,           0.0 ,            0.0 ,            0.0 ,            0.0 ,              0.0 ,                   0.0 ,1261.0 ,103.5066 ,-34.43706 ,           0.0 ,           0.0 ,       0.0 ,-158.1342      ,-18.62364   ,0.01095566       ,-7.265411e-05    ,                 0.0 ,             0.0 ,             0.0 ,                 0.0 ,                 0.0 ,        0.0 ,2.502123702495578      ,            0.0 ,            0.0 ,            0.0 ,              0.0 ,                   0.0 ,  0.0 ,0.0 ,1148.1857995914258   ,1.0                ,0.0 ,-228.66764701253092 ,-457.4675969448168  ,-2.4992149774460573     ,-228.91868461243777 ,          0.0 ,          0.0 ,-228.63991516495196 ,-457.4953287923958  ,-228.91868461243777 ,-915.0539285697856  ,132.04931821381828   ,305.01795962044486  ,228.71610400988612   ,-387.4595807173896    ,-616.2595306496755  ,-2.4992149774460573     ,-387.71056802574736 ,          0.0 ,          0.0 ,-387.43189849908276  ,-616.2872122057054  ,-387.71056802574736 ,-1391.4300291012635 ,132.04931821381828   ,463.8099430337545    ,228.71610400988612   ,7.534291932409861e-07   ,-1.4305793126510646e-05 ,-7.230468864460817e-06  ,      0.0 ,      0.0 ,      0.0 ,1.803751396987192e-06   ,-1.535611651977581e-05  ,      0.0 ,-1.3552364925063314e-05 ,9.48453409835121e-06   ,0.8224605594160992   ,0.4965614911013273      ,-0.002261837200250813   ,-0.0019021053821295332  ,0.0033566079958728423  ,-75.942061840927       ,0.0 ,-82.84768257330677    ,-82.84768257330677      ,        0.0 ,        0.0 , 0.0
 0.0 ,0.0 ,           0.0 ,            0.0 ,            0.0 ,            0.0 ,              0.0 ,                   0.0 ,1262.0 ,105.4696 ,-34.41668 ,           0.0 ,           0.0 ,       0.0 ,-157.8392      ,-18.63275   ,0.009566871      ,-5.85073e-05     ,                 0.0 ,             0.0 ,             0.0 ,                 0.0 ,                 0.0 ,        0.0 ,0.001802741084476811   ,            0.0 ,            0.0 ,            0.0 ,              0.0 ,                   0.0 ,  0.0 ,0.0 ,1147.1017007569444   ,1.0                ,0.0 ,-228.38549241096675 ,-458.46306779324493 ,-2.1141875285128324     ,-229.10781487244276 ,          0.0 ,          0.0 ,-228.36588840832042 ,-458.48272180065493 ,-229.10781487244276 ,-915.956425081418   ,132.64436149895565   ,305.31882490854457  ,229.74674470720618   ,-386.21688196258015   ,-616.294507169348   ,-2.1141875285128324     ,-386.93920442405624 ,          0.0 ,          0.0 ,-386.1972779599339   ,-616.3141113522684  ,-386.93920442405624 ,-1389.4508431906725 ,132.64436149895565   ,463.150214460158     ,229.74674470720618   ,-6.591903049497907e-09  ,-6.185804973621069e-08  ,-4.215136754384159e-09  ,      0.0 ,      0.0 ,      0.0 ,-6.511648621899169e-09  ,-6.193828974188075e-08  ,      0.0 ,-6.84499527857086e-08   ,3.403641868912345e-08  ,0.8204546394962193   ,0.5051152551078235      ,-0.00016142757233577557 ,-0.002644271724424723   ,0.004056222161599122   ,-83.17795405911559     ,0.0 ,-74.65005188031112    ,-74.65005188031112      ,        0.0 ,        0.0 , 0.0
 0.0 ,0.0 ,           0.0 ,            0.0 ,            0.0 ,            0.0 ,              0.0 ,                   0.0 ,1263.0 ,107.4336 ,-34.39603 ,           0.0 ,           0.0 ,       0.0 ,-157.5083      ,-18.6452    ,0.007479158      ,-4.547659e-05    ,                 0.0 ,             0.0 ,             0.0 ,                 0.0 ,                 0.0 ,        0.0 ,2.0024929354481933     ,            0.0 ,            0.0 ,            0.0 ,              0.0 ,                   0.0 ,  0.0 ,0.0 ,1146.550904203402    ,1.0                ,0.0 ,-228.65422269943707 ,-459.2965457933152  ,-2.000100761324089      ,-229.35456481258075 ,          0.0 ,          0.0 ,-228.6368749122518  ,-459.3139933546618  ,-229.35456481258075 ,-917.3053831806862  ,132.97476280457252   ,305.76842787745454  ,230.31910176321963   ,-386.1378041062436    ,-616.7801269742831  ,-2.000100761324089      ,-386.8380960947406  ,          0.0 ,          0.0 ,-386.1204560932198   ,-616.7975246368217  ,-386.8380960947406  ,-1389.7562269963385 ,132.97476280457252   ,463.25200905842246   ,230.31910176321963   ,-4.5352216416310076e-07 ,-2.0546448605536524e-05 ,-4.37208187636925e-06   ,      0.0 ,      0.0 ,      0.0 ,5.466711572171179e-08   ,-2.1054633895393084e-05 ,      0.0 ,-2.099997076969963e-05  ,1.2364788704456078e-05 ,0.6446291528243471   ,0.9977606486167467      ,0.005828086169290543    ,-0.006302991882018539   ,3.391412028204385e-05  ,-0.32929618677558536   ,0.0 ,-157.1455233260865    ,-157.1455233260865      ,        0.0 ,        0.0 , 0.0
 0.0 ,0.0 ,           0.0 ,            0.0 ,            0.0 ,            0.0 ,              0.0 ,                   0.0 ,1264.0 ,109.3967 ,-34.37868 ,           0.0 ,           0.0 ,       0.0 ,-157.1694      ,-18.66173   ,0.005581652      ,-3.042066e-05    ,                 0.0 ,             0.0 ,             0.0 ,                 0.0 ,                 0.0 ,        0.0 ,2.5006138361332746     ,            0.0 ,            0.0 ,            0.0 ,              0.0 ,                   0.0 ,  0.0 ,0.0 ,1145.5262643377005   ,1.0                ,0.0 ,-228.45543640004448 ,-459.1456453505527  ,-1.8347612214219482     ,-229.34642991779805 ,          0.0 ,          0.0 ,-228.4407943681805  ,-459.1602873824167  ,-229.34642991779805 ,-916.9475116683951  ,132.9453962740415    ,305.6491871736043   ,230.2681268484629    ,-386.39483974764767   ,-617.0849486981558  ,-1.8347612214219482     ,-387.28573347436713 ,          0.0 ,          0.0 ,-386.38014765440005  ,-617.0995909389858  ,-387.28573347436713 ,-1390.765371391225  ,132.9453962740415    ,463.5884907301733    ,230.2681268484629    ,1.1463647887262542e-06  ,-1.3280421266078636e-05 ,-7.916592291825537e-06  ,      0.0 ,      0.0 ,      0.0 ,2.273640861477759e-06   ,-1.4407698936865866e-05 ,      0.0 ,-1.2134057526063326e-05 ,9.177735489660427e-06  ,0.9992563843534875   ,0.010643433229749071    ,-0.00949790697194041    ,-3.03861303140614e-05   ,0.012965163122174064   ,-157.62726776351536    ,0.0 ,-0.31199551023511696  ,-0.31199551023511696    ,        0.0 ,        0.0 , 0.0
 0.0 ,0.0 ,           0.0 ,            0.0 ,            0.0 ,            0.0 ,              0.0 ,                   0.0 ,1265.0 ,111.3586 ,-34.36481 ,           0.0 ,           0.0 ,       0.0 ,-156.8166      ,-18.68315   ,0.003883255      ,-5.01858e-06     ,                 0.0 ,             0.0 ,             0.0 ,                 0.0 ,                 0.0 ,        0.0 ,1.9970473377246671     ,            0.0 ,            0.0 ,            0.0 ,              0.0 ,                   0.0 ,  0.0 ,0.0 ,1144.513623965897    ,1.0                ,0.0 ,-228.8799087843684  ,-460.1617627787193  ,-1.4984690597053014     ,-229.71519707754368 ,          0.0 ,          0.0 ,-228.8701662587215  ,-460.17150530436624 ,-229.71519707754368 ,-918.7568686406314  ,133.29883341536924   ,306.2522728919669   ,230.8803212675484    ,-385.87977039953034   ,-617.1615247596865  ,-1.4984690597053014     ,-386.7150089108776  ,          0.0 ,          0.0 ,-385.869928056786    ,-617.1713671024307  ,-386.7150089108776  ,-1389.756103816653  ,133.29883341536924   ,463.2521346900314    ,230.8803212675484    ,7.16658229202926e-08    ,-1.830254394499934e-05  ,-7.151215282090438e-06  ,      0.0 ,      0.0 ,      0.0 ,9.677527684623848e-07   ,-1.919863238399627e-05  ,      0.0 ,-1.823087761511564e-05  ,1.1578068740028059e-05 ,0.8219477206833123   ,0.5038193066819886      ,0.004099604046070493    ,-0.007260917284027775   ,0.004117152258391371   ,-82.29137813613417     ,0.0 ,-74.69885695454575    ,-74.69885695454575      ,        0.0 ,        0.0 , 0.0
 0.0 ,0.0 ,           0.0 ,            0.0 ,            0.0 ,            0.0 ,              0.0 ,                   0.0 ,1266.0 ,113.3194 ,-34.35334 ,           0.0 ,           0.0 ,       0.0 ,-156.4308      ,-18.71027   ,0.002355749      ,3.111484e-05     ,                 0.0 ,             0.0 ,             0.0 ,                 0.0 ,                 0.0 ,        0.0 ,1.9979791287890714     ,            0.0 ,            0.0 ,            0.0 ,              0.0 ,                   0.0 ,  0.0 ,0.0 ,1143.9900879441152   ,1.0                ,0.0 ,-229.23928218013822 ,-460.64691383708083 ,-1.084967402491654      ,-229.95537993865585 ,          0.0 ,          0.0 ,-229.23408790313562 ,-460.6521579301103  ,-229.95537993865585 ,-919.8415757900158  ,133.40158012926702   ,306.61387531258697  ,231.05825067686254   ,-385.6923970359748    ,-617.1000785451724  ,-1.084967402491654      ,-386.4084946648614  ,          0.0 ,          0.0 ,-385.6871527770862   ,-617.105272822175   ,-386.4084946648614  ,-1389.2006208913308 ,133.40158012926702   ,463.0669900387925    ,231.05825067686254   ,-7.09263718818546e-07   ,-1.8717587886407612e-05 ,-3.872069720831623e-06  ,      0.0 ,      0.0 ,      0.0 ,-4.810958974962601e-07  ,-1.8945754212162253e-05 ,      0.0 ,-1.942684961113596e-05  ,1.094967626783108e-05  ,0.6448533584446707   ,0.9983695592940991      ,0.015284095233761397    ,-0.009125488271719533   ,3.287446765178218e-05  ,-0.22559202928264108   ,0.0 ,-156.20951348655632   ,-156.20951348655632     ,        0.0 ,        0.0 , 0.0
 0.0 ,0.0 ,           0.0 ,            0.0 ,            0.0 ,            0.0 ,              0.0 ,                   0.0 ,1267.0 ,115.2786 ,-34.34257 ,           0.0 ,           0.0 ,       0.0 ,-155.9882      ,-18.74376   ,0.0009500367     ,-1.359411e-05    ,                 0.0 ,             0.0 ,             0.0 ,                 0.0 ,                 0.0 ,        0.0 ,0.5059182880386548     ,            0.0 ,            0.0 ,            0.0 ,              0.0 ,                   0.0 ,  0.0 ,0.0 ,1138.9816690534158   ,1.0                ,0.0 ,-229.55136107975315 ,-461.48645395866913 ,-0.8122908414302695     ,-230.2911198623815  ,          0.0 ,          0.0 ,-229.54851255785607 ,-461.48925262631974 ,-230.2911198623815  ,-921.3288850465574  ,133.69730986967517   ,307.1096283508112   ,231.57050975178765   ,-385.0718825375493    ,-617.0069255680951  ,-0.8122908414302695     ,-385.8116414688693  ,          0.0 ,          0.0 ,-385.0689840185904   ,-617.0098239383623  ,-385.8116414688693  ,-1387.8906497114529 ,133.69730986967517   ,462.63014980860737   ,231.57050975178765   ,9.156655101195729e-08   ,-1.4689464759531546e-05 ,-3.6596191592663866e-06 ,      0.0 ,      0.0 ,      0.0 ,3.1487495743069724e-07  ,-1.4912773923935568e-05 ,      0.0 ,-1.4597899856043562e-05 ,8.7022252306299e-06    ,0.8220127131558194   ,0.5099190027862469      ,0.0005856475914664747   ,-0.002432083404743077   ,0.00988147059340886    ,-73.21594067299789     ,0.0 ,-82.29839322111329    ,-82.29839322111329      ,        0.0 ,        0.0 , 0.0
 0.0 ,0.0 ,           0.0 ,            0.0 ,            0.0 ,            0.0 ,              0.0 ,                   0.0 ,1268.0 ,117.2356 ,-34.33031 ,           0.0 ,           0.0 ,       0.0 ,-155.4629      ,-18.78402   ,-0.0005587599    ,2.740473e-05     ,                 0.0 ,             0.0 ,             0.0 ,                 0.0 ,                 0.0 ,        0.0 ,3.496196140270966      ,            0.0 ,            0.0 ,            0.0 ,              0.0 ,                   0.0 ,  0.0 ,0.0 ,1132.9280855171032   ,1.0                ,0.0 ,-229.86781340052386 ,-461.24859954347295 ,-0.4916335033802865     ,-230.37914392322975 ,          0.0 ,          0.0 ,-229.86661865415707 ,-461.2498446702257  ,-230.37914392322975 ,-921.4956072476125  ,133.44146169690418   ,307.1652190944992   ,231.12741252028036   ,-385.4358659154081    ,-616.8167016779712  ,-0.4916335033802865     ,-385.9472460577281  ,          0.0 ,          0.0 ,-385.43467116904134  ,-616.8178472209952  ,-385.9472460577281  ,-1388.1996613329063 ,133.44146169690418   ,462.73327119311233   ,231.12741252028036   ,5.953069313274196e-07   ,-1.5132876193923866e-05 ,-1.5246235649097607e-06 ,      0.0 ,      0.0 ,      0.0 ,6.380172459555824e-07   ,-1.517558868837004e-05  ,      0.0 ,-1.4537567964878763e-05 ,8.99449967049195e-06   ,0.8232797942621095   ,0.5139734553474365      ,0.0011230781641022704   ,-0.004007873975608225   ,0.01857645446110498    ,-83.32367831655591     ,0.0 ,-72.23673029678747    ,-72.23673029678747      ,        0.0 ,        0.0 , 0.0
 0.0 ,0.0 ,           0.0 ,            0.0 ,            0.0 ,            0.0 ,              0.0 ,                   0.0 ,1269.0 ,117.2282 ,-32.43765 ,           0.0 ,           0.0 ,       0.0 ,-136.7293      ,-18.76472   ,-0.001189657     ,2.107864e-05     ,                 0.0 ,             0.0 ,             0.0 ,                 0.0 ,                 0.0 ,        0.0 ,2.4993495943446744     ,            0.0 ,            0.0 ,            0.0 ,              0.0 ,                   0.0 ,  0.0 ,0.0 ,1133.997213911939    ,0.9999999999999999 ,0.0 ,-221.86940811109875 ,-445.80393174638226 ,-0.568994014796106      ,-222.63587016963675 ,          0.0 ,          0.0 ,-221.8678080571981  ,-445.8055817352424  ,-222.63587016963675 ,-890.3092599620772  ,129.06947876316892   ,296.76976996567885  ,223.55479302823855   ,-359.1839813347418    ,-583.1185049700254  ,-0.568994014796106      ,-359.9504433932798  ,          0.0 ,          0.0 ,-359.1823812808411   ,-583.1202049407985  ,-359.9504433932798  ,-1302.2526801063768 ,129.06947876316892   ,434.0842932543625    ,223.55479302823855   ,2.0424662369496305e-06  ,-1.3373838506696184e-05 ,-3.2081437374813735e-06 ,      0.0 ,      0.0 ,      0.0 ,2.2273824058930883e-06  ,-1.3558756673253622e-05 ,      0.0 ,-1.1331371267252732e-05 ,8.5673097929305e-06    ,0.8211819606134141   ,0.5191853338071543      ,0.0016132662824349128   ,-0.00867243665897244    ,0.020233310998618      ,-73.33313371356701     ,0.0 ,-63.968407017676455   ,-63.968407017676455     ,        0.0 ,        0.0 , 0.0
 0.0 ,0.0 ,           0.0 ,            0.0 ,            0.0 ,            0.0 ,              0.0 ,                   0.0 ,1270.0 ,117.2251 ,-30.54375 ,           0.0 ,           0.0 ,       0.0 ,-118.0651      ,-18.73724   ,-0.001416802     ,2.047772e-05     ,                 0.0 ,             0.0 ,             0.0 ,                 0.0 ,                 0.0 ,        0.0 ,1.000070751424139      ,            0.0 ,            0.0 ,            0.0 ,              0.0 ,                   0.0 ,  0.0 ,0.0 ,1134.9916665735052   ,1.0                ,0.0 ,-214.08070502006117 ,-431.16072214883707 ,-0.523512291186147      ,-215.0998323330202  ,          0.0 ,          0.0 ,-214.0792056504074  ,-431.1622215184908  ,-215.0998323330202  ,-860.3412595019184  ,125.03937448695547   ,286.7804198339728   ,216.57450230371242   ,-332.1817573535444    ,-549.2617744823203  ,-0.523512291186147      ,-333.20088466650344 ,          0.0 ,          0.0 ,-332.18025798389067  ,-549.2633238083001  ,-333.20088466650344 ,-1214.6442665601926 ,125.03937448695547   ,404.8814721674561    ,216.57450230371242   ,1.0123007472096033e-06  ,-1.0593244274052397e-05 ,-2.9023948055921345e-06 ,      0.0 ,      0.0 ,      0.0 ,1.1910377522405343e-06  ,-1.077198327639214e-05  ,      0.0 ,-9.58094302539107e-06   ,6.590015513285989e-06  ,0.8214018832797836   ,0.5137565748489997      ,-2.0022756771955613e-05 ,-0.008661994234306136   ,0.016822984665658788   ,-54.19799936886548     ,0.0 ,-63.89003811133025    ,-63.89003811133025      ,        0.0 ,        0.0 , 0.0
 0.0 ,0.0 ,           0.0 ,            0.0 ,            0.0 ,            0.0 ,              0.0 ,                   0.0 ,1271.0 ,117.2178 ,-28.64741 ,           0.0 ,           0.0 ,       0.0 ,-99.48618      ,-18.69879   ,-0.001816137     ,1.686082e-05     ,                 0.0 ,             0.0 ,             0.0 ,                 0.0 ,                 0.0 ,        0.0 ,1.4912016834507642     ,            0.0 ,            0.0 ,            0.0 ,              0.0 ,                   0.0 ,  0.0 ,0.0 ,1126.9958731411743   ,1.0                ,0.0 ,-205.98044222081103 ,-414.9614284283622  ,-0.46746001465315223    ,-207.13939101696488 ,          0.0 ,          0.0 ,-205.97919709524783 ,-414.9626238541573  ,-207.13939101696488 ,-828.0812616661381  ,120.32311270911185   ,276.02707065545667  ,208.40580161431905   ,-306.4761010291702    ,-515.4570872367215  ,-0.46746001465315223    ,-307.63504982532413 ,          0.0 ,          0.0 ,-306.474855903607    ,-515.4582826729486  ,-307.63504982532413 ,-1129.567888422744  ,120.32311270911185   ,376.5227294638159    ,208.40580161431905   ,3.316583001031943e-06   ,-2.214371409945938e-06  ,-1.9148568388858122e-06 ,      0.0 ,      0.0 ,      0.0 ,3.4776326474989154e-06  ,-2.375421553827875e-06  ,      0.0 ,1.1022110941926462e-06  ,2.9439697277688002e-06 ,0.9999627395898332   ,0.028114850511902663    ,-0.03304097804956666    ,-1.8071883598694192e-06 ,0.04417170290468518    ,-100.48231687559276    ,0.0 ,-0.013329278004556373 ,-0.013329278004556373   ,        0.0 ,        0.0 , 0.0
 0.0 ,0.0 ,           0.0 ,            0.0 ,            0.0 ,            0.0 ,              0.0 ,                   0.0 ,1272.0 ,115.2555 ,-28.65479 ,           0.0 ,           0.0 ,       0.0 ,-99.96057      ,-18.65873   ,6.518284e-05     ,6.330365e-05     ,                 0.0 ,             0.0 ,             0.0 ,                 0.0 ,                 0.0 ,        0.0 ,2.001100472592304      ,            0.0 ,            0.0 ,            0.0 ,              0.0 ,                   0.0 ,  0.0 ,0.0 ,1136.9912027140736   ,1.0                ,0.0 ,-205.9803366542578  ,-415.2063724608839  ,-0.7168787370658519     ,-207.05441079285333 ,          0.0 ,          0.0 ,-205.9778334414544  ,-415.20882572936046 ,-207.05441079285333 ,-828.241119907995   ,120.49002843867889   ,276.0803733028815   ,208.694879907535     ,-306.31066333537626   ,-515.5366991420024  ,-0.7168787370658519     ,-307.3847375846686  ,          0.0 ,          0.0 ,-306.30816023326963  ,-515.5391524104789  ,-307.3847375846686  ,-1129.2319504511097 ,120.49002843867889   ,376.4107000946967    ,208.694879907535     ,1.2554596180513454e-06  ,-1.926101096800759e-05  ,-1.9803831381820055e-06 ,      0.0 ,      0.0 ,      0.0 ,1.4187116392081948e-06  ,-1.9424263488607708e-05 ,      0.0 ,-1.800555035105022e-05  ,1.2255369819856571e-05 ,0.9995998568543135   ,0.018720103390294767    ,-0.029808191737781424   ,-4.661429776557306e-05  ,0.03465293688234586    ,-100.22732003066423    ,0.0 ,-0.10294693911483954  ,-0.10294693911483954    ,        0.0 ,        0.0 , 0.0
 0.0 ,0.0 ,           0.0 ,            0.0 ,            0.0 ,            0.0 ,              0.0 ,                   0.0 ,1273.0 ,113.2947 ,-28.6694  ,           0.0 ,           0.0 ,       0.0 ,-100.3814      ,-18.63126   ,0.001945346      ,8.379629e-05     ,                 0.0 ,             0.0 ,             0.0 ,                 0.0 ,                 0.0 ,        0.0 ,1.4994917430392243     ,            0.0 ,            0.0 ,            0.0 ,              0.0 ,                   0.0 ,  0.0 ,0.0 ,1138.0048758731941   ,1.0                ,0.0 ,-205.34236341743338 ,-414.16563800588375 ,-1.052625383343197      ,-206.6925880598042  ,          0.0 ,          0.0 ,-205.33706431578068 ,-414.17093710753636 ,-206.6925880598042  ,-826.2005894831213  ,120.18085135213526   ,275.4001798423523   ,208.1593602040297    ,-306.8131665999419    ,-515.6364411883923  ,-1.052625383343197      ,-308.1634412131953  ,          0.0 ,          0.0 ,-306.8079174691718   ,-515.6417402900449  ,-308.1634412131953  ,-1130.6131489798208 ,120.18085135213526   ,376.87108298833425   ,208.1593602040297    ,2.7363220972136937e-06  ,-1.5904574619870069e-06 ,-3.5472638013664986e-06 ,      0.0 ,      0.0 ,      0.0 ,3.371665919130184e-06   ,-2.225801283903497e-06  ,      0.0 ,1.145864636322485e-06   ,2.820057378835102e-06  ,0.8193668028250919   ,0.5049799333035788      ,-0.00038914904483624733 ,-0.021042693671566942   ,0.009832804478802668   ,-54.97590134125905     ,0.0 ,-46.47245605014618    ,-46.47245605014618      ,        0.0 ,        0.0 , 0.0
 0.0 ,0.0 ,           0.0 ,            0.0 ,            0.0 ,            0.0 ,              0.0 ,                   0.0 ,1274.0 ,111.3264 ,-28.68608 ,           0.0 ,           0.0 ,       0.0 ,-100.7299      ,-18.61309   ,0.003227436      ,5.340772e-05     ,                 0.0 ,             0.0 ,             0.0 ,                 0.0 ,                 0.0 ,        0.0 ,3.4994072573696395     ,            0.0 ,            0.0 ,            0.0 ,              0.0 ,                   0.0 ,  0.0 ,0.0 ,1139.0092145584426   ,1.0                ,0.0 ,-205.6758032852715  ,-414.6219102856623  ,-1.2508000044451428     ,-206.78015409046495 ,          0.0 ,          0.0 ,-205.66779935802347 ,-414.6299142129103  ,-206.78015409046495 ,-827.0778676613987  ,120.32459768708532   ,275.6926392024716   ,208.40831368455088   ,-306.74914676675075   ,-515.6952037184477  ,-1.2508000044451428     ,-307.8533975745893  ,          0.0 ,          0.0 ,-306.7411428395027   ,-515.7032076456958  ,-307.8533975745893  ,-1130.2978482572082 ,120.32459768708532   ,376.765982686596     ,208.40831368455088   ,-5.803348450179478e-07  ,-1.8234561892801065e-05 ,-1.7897714622774997e-06 ,      0.0 ,      0.0 ,      0.0 ,8.350881353990824e-07   ,-1.9649984373731485e-05 ,      0.0 ,-1.881489516929101e-05  ,1.198161532670749e-05  ,1.0                  ,0.004189790899907153    ,-0.019591165827981035   ,0.0                     ,0.020075906650024733   ,-101.07333349174704    ,0.0 ,0.0                   ,0.0                     ,        0.0 ,        0.0 , 0.0
 0.0 ,0.0 ,           0.0 ,            0.0 ,            0.0 ,            0.0 ,              0.0 ,                   0.0 ,1275.0 ,109.3506 ,-28.70614 ,           0.0 ,           0.0 ,       0.0 ,-101.0448      ,-18.60166   ,0.00422715       ,5.527278e-05     ,                 0.0 ,             0.0 ,             0.0 ,                 0.0 ,                 0.0 ,        0.0 ,1.9966757606784897     ,            0.0 ,            0.0 ,            0.0 ,              0.0 ,                   0.0 ,  0.0 ,0.0 ,1116.616756401225    ,1.0                ,0.0 ,-205.79324155273218 ,-414.5642391051021  ,-1.4783897786827462     ,-206.75874296457857 ,          0.0 ,          0.0 ,-205.78271540016652 ,-414.5747905137971  ,-206.75874296457857 ,-827.1162236224128  ,120.26560535788713   ,275.70539115206697  ,208.306120184294     ,-306.8950361473389    ,-515.665983519874   ,-1.4783897786827462     ,-307.8604873793505  ,          0.0 ,          0.0 ,-306.88450964872646  ,-515.6765100184864  ,-307.8604873793505  ,-1130.4215807795395 ,120.26560535788713   ,376.80721065675624   ,208.306120184294     ,-1.93745000346441e-06   ,-2.0660566744208565e-05 ,-2.3881419244757997e-06 ,      0.0 ,      0.0 ,      0.0 ,-5.695203897815598e-07  ,-2.2028493849580817e-05 ,      0.0 ,-2.2598013667932952e-05 ,1.302801590827105e-05  ,1.0                  ,0.0023410633623684876   ,-0.01579399427304716    ,0.0                     ,0.016420209547797285   ,-101.10178677553513    ,0.0 ,0.0                   ,0.0                     ,        0.0 ,        0.0 , 0.0
 0.0 ,0.0 ,           0.0 ,            0.0 ,            0.0 ,            0.0 ,              0.0 ,                   0.0 ,1276.0 ,107.3653 ,-28.73492 ,           0.0 ,           0.0 ,       0.0 ,-101.3992      ,-18.595     ,0.005203476      ,2.783893e-05     ,                 0.0 ,             0.0 ,             0.0 ,                 0.0 ,                 0.0 ,        0.0 ,1.4932861689393153     ,            0.0 ,            0.0 ,            0.0 ,              0.0 ,                   0.0 ,  0.0 ,0.0 ,1117.623880357331    ,1.0                ,0.0 ,-206.20650873971073 ,-415.2469462525084  ,-1.6144193790661665     ,-206.951923930232   ,          0.0 ,          0.0 ,-206.19395938555138 ,-415.2595453132412  ,-206.951923930232   ,-828.4054043103669  ,120.4859626433915    ,276.13511836206607  ,208.6877594119017    ,-306.36673319916065   ,-515.407096099874   ,-1.6144193790661665     ,-307.11204838968195 ,          0.0 ,          0.0 ,-306.354109232917    ,-515.419694678202   ,-307.11204838968195 ,-1128.8856777931649 ,120.4859626433915    ,376.2953174336003    ,208.6877594119017    ,-3.6159959065431374e-06 ,-2.8416151871735796e-05 ,2.077788760271906e-06   ,      0.0 ,      0.0 ,      0.0 ,-3.5709158223925875e-06 ,-2.8461229470557672e-05 ,      0.0 ,-3.2032144795884525e-05 ,1.5538152112323486e-05 ,1.0                  ,-0.00012044747469281076 ,-0.007775958727412396   ,0.0                     ,0.008158702219493278   ,-100.16013442165428    ,0.0 ,0.0                   ,0.0                     ,        0.0 ,        0.0 , 0.0
 0.0 ,0.0 ,           0.0 ,            0.0 ,            0.0 ,            0.0 ,              0.0 ,                   0.0 ,1277.0 ,105.3667 ,-28.78035 ,           0.0 ,           0.0 ,       0.0 ,-101.8867      ,-18.59167   ,0.006461407      ,2.561697e-05     ,                 0.0 ,             0.0 ,             0.0 ,                 0.0 ,                 0.0 ,        0.0 ,0.0035078793546911013  ,            0.0 ,            0.0 ,            0.0 ,              0.0 ,                   0.0 ,  0.0 ,0.0 ,1141.9001677163424   ,1.0                ,0.0 ,-205.53778497385213 ,-413.7881615444905  ,-1.9936549943366981     ,-206.53753116422672 ,          0.0 ,          0.0 ,-205.518643175314   ,-413.8073532654046  ,-206.53753116422672 ,-825.8635276724965  ,119.96250488246201   ,275.2878425507836   ,207.78119001157222   ,-307.4126506673384    ,-515.6630271502797  ,-1.9936549943366981     ,-308.4123467800889  ,          0.0 ,          0.0 ,-307.3935087811033   ,-515.6821689689637  ,-308.4123467800889  ,-1131.4878746954769 ,119.96250488246201   ,377.1626582543428    ,207.78119001157222   ,-1.6547982370835933e-09 ,-3.890068072203729e-08  ,3.825917728504815e-09   ,      0.0 ,      0.0 ,      0.0 ,-1.5568056273102974e-09 ,-3.899867333181058e-08  ,      0.0 ,-4.0555478959120885e-08 ,2.2080206282928952e-08 ,0.8187759345580409   ,0.5006555965252748      ,-0.004913448003151628   ,-0.004281817719143699   ,0.005025076598261329   ,-55.584652413903804    ,0.0 ,-46.28589025857392    ,-46.28589025857392      ,        0.0 ,        0.0 , 0.0
 0.0 ,0.0 ,           0.0 ,            0.0 ,            0.0 ,            0.0 ,              0.0 ,                   0.0 ,1278.0 ,103.3482 ,-28.85629 ,           0.0 ,           0.0 ,       0.0 ,-102.6558      ,-18.59071   ,0.008801796      ,-1.264964e-05    ,                 0.0 ,             0.0 ,             0.0 ,                 0.0 ,                 0.0 ,        0.0 ,1.0337517008720774     ,            0.0 ,            0.0 ,            0.0 ,              0.0 ,                   0.0 ,  0.0 ,0.0 ,1141.5907718231986   ,1.0                ,0.0 ,-205.98733172730977 ,-413.94810641530137 ,-2.3562165437281237     ,-206.63153559299013 ,          0.0 ,          0.0 ,-205.96034803314663 ,-413.975113697852   ,-206.63153559299013 ,-826.5669484516914  ,119.90414303292509   ,275.52229967317044  ,207.68010695264715   ,-308.2409520768224    ,-516.2017267648141  ,-2.3562165437281237     ,-308.8851565023853  ,          0.0 ,          0.0 ,-308.21396838265935  ,-516.2287340473647  ,-308.8851565023853  ,-1133.327789271137  ,119.90414303292509   ,377.7759458664756    ,207.68010695264715   ,-2.4783855890346767e-07 ,-1.1012820476073962e-05 ,2.466140800137847e-07   ,      0.0 ,      0.0 ,      0.0 ,-2.464263248611138e-07  ,-1.1014234131524904e-05 ,      0.0 ,-1.1260659861978791e-05 ,6.289141182144797e-06  ,0.8225878420700589   ,0.4885659667901587      ,-0.0024762481732511395  ,-0.004191753007876511   ,0.0026537295355627153  ,-56.93714509344164     ,0.0 ,-45.312302493909144   ,-45.312302493909144     ,        0.0 ,        0.0 , 0.0
 0.0 ,0.0 ,           0.0 ,            0.0 ,            0.0 ,            0.0 ,              0.0 ,                   0.0 ,1279.0 ,101.2977 ,-28.98721 ,           0.0 ,           0.0 ,       0.0 ,-103.9575      ,-18.59145   ,0.01368291       ,4.351654e-05     ,                 0.0 ,             0.0 ,             0.0 ,                 0.0 ,                 0.0 ,        0.0 ,3.2359407814114265     ,            0.0 ,            0.0 ,            0.0 ,              0.0 ,                   0.0 ,  0.0 ,0.0 ,1142.656297369495    ,1.0                ,0.0 ,-207.11778053532345 ,-415.17943787309787 ,-2.8370301740506476     ,-207.24268402898008 ,          0.0 ,          0.0 ,-207.07845821831788 ,-415.21873315094444 ,-207.24268402898008 ,-829.5399279060421  ,120.12243352109076   ,276.5132849817337   ,208.05818405085523   ,-309.4140661415326    ,-517.4757505184659  ,-2.8370301740506476     ,-309.5390441665486  ,          0.0 ,          0.0 ,-309.374770863686    ,-517.5150457963126  ,-309.5390441665486  ,-1136.4290426387129 ,120.12243352109076   ,378.8096451193022    ,208.05818405085523   ,-2.1809378919425775e-06 ,-4.1675085875183304e-05 ,4.060297819442673e-07   ,      0.0 ,      0.0 ,      0.0 ,-2.1781991014053825e-06 ,-4.167782829653714e-05  ,      0.0 ,-4.385602420530994e-05  ,2.347877466510353e-05  ,1.0                  ,-0.0021188233945512195  ,-0.00326400076385198    ,0.0                     ,0.003908665948488742   ,-102.29632353050062    ,0.0 ,0.0                   ,0.0                     ,        0.0 ,        0.0 , 0.0
 0.0 ,0.0 ,           0.0 ,            0.0 ,            0.0 ,            0.0 ,              0.0 ,                   0.0 ,1280.0 ,99.20379 ,-29.23078 ,           0.0 ,           0.0 ,       0.0 ,-106.3722      ,-18.59356   ,0.01720967       ,0.000122672      ,                 0.0 ,             0.0 ,             0.0 ,                 0.0 ,                 0.0 ,        0.0 ,2.5954596401573182     ,            0.0 ,            0.0 ,            0.0 ,              0.0 ,                   0.0 ,  0.0 ,0.0 ,1155.4871812825302   ,1.0                ,0.0 ,-208.21014585503144 ,-415.6960553181418  ,-3.667022083210659      ,-207.96102499316794 ,          0.0 ,          0.0 ,-208.14447185406823 ,-415.7616847821175  ,-207.96102499316794 ,-831.8672261663412  ,119.92091535364582   ,277.28906554611007  ,207.70913626052533   ,-313.17113609007924   ,-520.6570605621662  ,-3.667022083210659      ,-312.92205976520324 ,          0.0 ,          0.0 ,-313.1054770980926   ,-520.7227195541528  ,-312.92205976520324 ,-1146.750289195524  ,119.92091535364582   ,382.2501003181454    ,207.70913626052533   ,-3.247183806329843e-06  ,-3.833683235043703e-05  ,-4.780676126315242e-07  ,      0.0 ,      0.0 ,      0.0 ,-3.1904672699700407e-06 ,-3.839355202708775e-05  ,      0.0 ,-4.158401392844752e-05  ,2.1327113817302135e-05 ,0.9051593560376352   ,0.2575968620571971      ,-0.002409503550872153   ,-0.0007767022055278095  ,0.002565161022101398   ,-70.20509162869156     ,0.0 ,-34.75497692448241    ,-34.75497692448241      ,        0.0 ,        0.0 , 0.0
 0.0 ,0.0 ,           0.0 ,            0.0 ,            0.0 ,            0.0 ,              0.0 ,                   0.0 ,1281.0 ,97.04536 ,-29.6749  ,           0.0 ,           0.0 ,       0.0 ,-110.7815      ,-18.59676   ,0.02166647       ,-0.001669416     ,                 0.0 ,             0.0 ,             0.0 ,                 0.0 ,                 0.0 ,        0.0 ,0.8020316410660235     ,            0.0 ,            0.0 ,            0.0 ,              0.0 ,                   0.0 ,  0.0 ,0.0 ,1145.137013412137    ,1.0                ,0.0 ,-210.84620327484782 ,-417.9963062214952  ,-3.809974049488031      ,-209.48732069458686 ,          0.0 ,          0.0 ,-210.77529795433125 ,-418.0672115420118  ,-209.48732069458686 ,-838.3298301909299  ,120.05478897535046   ,279.44324339697664  ,207.94104252846978   ,-320.5761506767828    ,-527.7262149982929  ,-3.809974049488031      ,-319.2172764121272  ,          0.0 ,          0.0 ,-320.50519841552364  ,-527.7971672595522  ,-319.2172764121272  ,-1167.5196071004482 ,120.05478897535046   ,389.173199114517     ,207.94104252846978   ,-2.650082101575807e-06  ,-2.3658919403393827e-05 ,8.370601152472372e-07   ,      0.0 ,      0.0 ,      0.0 ,-2.63272219435506e-06   ,-2.3676283232186085e-05 ,      0.0 ,-2.6309003192188963e-05 ,1.2976521128797197e-05 ,1.0                  ,-0.0014101048391342678  ,-0.0021982890047840963  ,0.0                     ,0.002786890932812176   ,-109.72995102346609    ,0.0 ,0.0                   ,0.0                     ,        0.0 ,        0.0 , 0.0
 0.0 ,0.0 ,           0.0 ,            0.0 ,            0.0 ,            0.0 ,              0.0 ,                   0.0 ,1282.0 ,94.7861  ,-30.37746 ,           0.0 ,           0.0 ,       0.0 ,-117.768       ,-18.60067   ,0.02975047       ,-0.0001316646    ,                 0.0 ,             0.0 ,             0.0 ,                 0.0 ,                 0.0 ,        0.0 ,1.9294422424296696     ,            0.0 ,            0.0 ,            0.0 ,              0.0 ,                   0.0 ,  0.0 ,0.0 ,1150.5879037729821   ,1.0                ,0.0 ,-215.8627529816543  ,-422.8409836279093  ,-2.4103235253429105     ,-212.51167643503481 ,          0.0 ,          0.0 ,-215.7947020159445  ,-422.9090594331817  ,-212.51167643503481 ,-851.215437884161   ,120.54457930162948   ,283.73845424124124  ,208.78934771646823   ,-332.44186486270985   ,-539.4201623746928  ,-2.4103235253429105     ,-329.09083034225574 ,          0.0 ,          0.0 ,-332.373813897       ,-539.4882133404026  ,-329.09083034225574 ,-1200.9526722438288 ,120.54457930162948   ,400.31760814846217   ,208.78934771646823   ,-3.0385331639394763e-06 ,-2.8706793581717442e-05 ,-1.2027919964724368e-08 ,      0.0 ,      0.0 ,      0.0 ,-3.0025400545917036e-06 ,-2.874278628961039e-05  ,      0.0 ,-3.17453305280118e-05   ,1.579942358382168e-05  ,1.0                  ,-0.0016044033235741214  ,-0.001703709473205521   ,0.0                     ,0.0025821468857196114  ,-116.57915390722093    ,0.0 ,0.0                   ,0.0                     ,        0.0 ,        0.0 , 0.0
 0.0 ,0.0 ,           0.0 ,            0.0 ,            0.0 ,            0.0 ,              0.0 ,                   0.0 ,1283.0 ,92.18213 ,-30.6071  ,           0.0 ,           0.0 ,       0.0 ,-120.0324      ,-18.60386   ,0.06568318       ,-0.003269467     ,                 0.0 ,             0.0 ,             0.0 ,                 0.0 ,                 0.0 ,        0.0 ,1.754468617295819      ,            0.0 ,            0.0 ,            0.0 ,              0.0 ,                   0.0 ,  0.0 ,0.0 ,1138.2359082307364   ,1.0                ,0.0 ,-219.95089967719713 ,-424.0801334730995  ,0.101848780682126       ,-213.9927830126857  ,          0.0 ,          0.0 ,-219.88541271765322 ,-424.1456894953139  ,-213.9927830126857  ,-858.0239025907797  ,119.67765218540029   ,286.00795721781674  ,207.28771779109198   ,-338.63288504882524   ,-542.7622014796008  ,0.101848780682126       ,-332.67479932164326 ,          0.0 ,          0.0 ,-338.5673980892813   ,-542.8277058042715  ,-332.67479932164326 ,-1214.070198032662  ,119.67765218540029   ,404.6899561616475    ,207.28771779109198   ,-4.330564089568294e-06  ,-3.743556519389538e-05  ,1.9425679933546096e-06  ,      0.0 ,      0.0 ,      0.0 ,-4.243063285087783e-06  ,-3.7523062643035154e-05 ,      0.0 ,-4.176613033131065e-05  ,2.0557382027249492e-05 ,0.9348353298798231   ,0.17204138025654653     ,-0.00174560462305764    ,-0.00046670028623817467 ,0.0017438888372713483  ,-104.12217375643519    ,0.0 ,-14.558632330121963   ,-14.558632330121963     ,        0.0 ,        0.0 , 0.0
 0.0 ,0.0 ,           0.0 ,            0.0 ,            0.0 ,            0.0 ,              0.0 ,                   0.0 ,1284.0 ,89.35646 ,-30.80607 ,           0.0 ,           0.0 ,       0.0 ,-121.9828      ,-18.60778   ,-0.0001358116    ,-0.003348271     ,                 0.0 ,             0.0 ,             0.0 ,                 0.0 ,                 0.0 ,        0.0 ,1.3995775828756583     ,            0.0 ,            0.0 ,            0.0 ,              0.0 ,                   0.0 ,  0.0 ,0.0 ,1134.200704710079    ,1.0                ,0.0 ,-224.93119538915528 ,-427.3025908047419  ,5.916796218750254       ,-216.18942790210718 ,          0.0 ,          0.0 ,-224.63480303757254 ,-427.5990192291175  ,-216.18942790210718 ,-868.4232102110388  ,119.6972011201853    ,289.4744167229324   ,207.32162715791497   ,-345.44480795929496   ,-547.8161994899161  ,5.916796218750254       ,-336.70300051448856 ,          0.0 ,          0.0 ,-345.1483996194029   ,-548.1125918414989  ,-336.70300051448856 ,-1229.9641403887663 ,119.6972011201853    ,409.98798933531384   ,207.32162715791497   ,-4.649623559776404e-06  ,-3.921879704766108e-05  ,3.3289070840632283e-06  ,      0.0 ,      0.0 ,      0.0 ,-4.568526566401834e-06  ,-3.929989559337915e-05  ,      0.0 ,-4.38684222852989e-05   ,2.1493253181314576e-05 ,0.7604007690298423   ,0.6385987263078975      ,-0.002094664809518449   ,-0.0003874612913009657  ,0.0007095716753556213  ,-47.207383130910365    ,0.0 ,-73.3043260866015     ,-73.3043260866015       ,        0.0 ,        0.0 , 0.0
 0.0 ,0.0 ,           0.0 ,            0.0 ,            0.0 ,            0.0 ,              0.0 ,                   0.0 ,1285.0 ,86.19812 ,-31.13224 ,           0.0 ,           0.0 ,       0.0 ,-125.1948      ,-18.61276   ,-0.3462488       ,0.01258602       ,                 0.0 ,             0.0 ,             0.0 ,                 0.0 ,                 0.0 ,        0.0 ,2.1341211948420513     ,            0.0 ,            0.0 ,            0.0 ,              0.0 ,                   0.0 ,  0.0 ,0.0 ,1094.3195552231668   ,1.0                ,0.0 ,-228.03704434482955 ,-449.4659958327469  ,19.558848455972765      ,-225.64175606810124 ,          0.0 ,          0.0 ,-226.00976198071646 ,-451.49324967113546 ,-225.64175606810124 ,-903.1446962456778  ,130.32245698875298   ,301.0482419273697   ,225.7251494504589    ,-352.3721072589286    ,-573.8010225043549  ,19.558848455972765      ,-349.9767475079248  ,          0.0 ,          0.0 ,-350.3447534205401   ,-575.8282763427434  ,-349.9767475079248  ,-1276.1498755697226 ,130.32245698875298   ,425.3832685989776    ,225.7251494504589    ,-8.239491453786036e-07  ,-2.768753194798032e-05  ,2.0401931385337738e-06  ,      0.0 ,      0.0 ,      0.0 ,-7.851321544442202e-07  ,-2.7726349673871603e-05 ,      0.0 ,-2.851148109335893e-05  ,1.58260736006984e-05   ,0.7427721710010408   ,0.7141942048764918      ,-0.0021888597188757263  ,-0.0003682907039848606  ,0.0005826784303411272  ,-25.905840530934096    ,0.0 ,-98.42720116290323    ,-98.42720116290323      ,        0.0 ,        0.0 , 0.0
 0.0 ,0.0 ,           0.0 ,            0.0 ,            0.0 ,            0.0 ,              0.0 ,                   0.0 ,1286.0 ,83.46443 ,-30.77683 ,           0.0 ,           0.0 ,       0.0 ,-121.5985      ,-18.61698   ,-0.2772334       ,-0.01944901      ,                 0.0 ,             0.0 ,             0.0 ,                 0.0 ,                 0.0 ,        0.0 ,1.1661557507893716     ,            0.0 ,            0.0 ,            0.0 ,              0.0 ,                   0.0 ,  0.0 ,0.0 ,1126.0080934412647   ,1.0                ,0.0 ,-222.02642517338765 ,-456.4701976482998  ,20.28084655566339       ,-227.2208793121349  ,          0.0 ,          0.0 ,-220.12041868045873 ,-458.3761872235883  ,-227.2208793121349  ,-905.7174852161819  ,135.55759753037972   ,301.90580635048764  ,234.79262049589803   ,-341.97481302546953   ,-576.4185855003817  ,20.28084655566339       ,-347.16926716421676 ,          0.0 ,          0.0 ,-340.06880653254063  ,-578.3245750756702  ,-347.16926716421676 ,-1265.5629246090423 ,135.55759753037972   ,421.8541942025695    ,234.79262049589803   ,4.070173535679275e-06   ,-4.534985681036063e-05  ,7.639791671825795e-06   ,      0.0 ,      0.0 ,      0.0 ,4.367541999663133e-06   ,-4.564721923502455e-05  ,      0.0 ,-4.127968067043319e-05  ,2.7701445329820405e-05 ,1.0                  ,-0.002090166359106759   ,-0.00030165154564171915 ,0.0                     ,0.002120136184015889   ,-119.94839123560998    ,0.0 ,0.0                   ,0.0                     ,        0.0 ,        0.0 , 0.0
 0.0 ,0.0 ,           0.0 ,            0.0 ,            0.0 ,            0.0 ,              0.0 ,                   0.0 ,1287.0 ,115.2864 ,-32.4546  ,           0.0 ,           0.0 ,       0.0 ,-137.3038      ,-18.72421   ,0.0005107383     ,3.243988e-05     ,                 0.0 ,             0.0 ,             0.0 ,                 0.0 ,                 0.0 ,        0.0 ,3.9928123127028425     ,            0.0 ,            0.0 ,            0.0 ,              0.0 ,                   0.0 ,  0.0 ,0.0 ,1149.94486494044     ,1.0                ,0.0 ,-222.00719428355157 ,-446.73547025966593 ,-0.740305491557272      ,-222.77234135689338 ,          0.0 ,          0.0 ,-222.00469632216704 ,-446.73796822105044 ,-222.77234135689338 ,-891.514956319603   ,129.52881445876352   ,297.1716853200729   ,224.35047506897263   ,-358.4255223502944    ,-583.1538483865165  ,-0.740305491557272      ,-359.19071948374403 ,          0.0 ,          0.0 ,-358.4230243889099   ,-583.1562966471777  ,-359.19071948374403 ,-1300.7699915391395 ,129.52881445876352   ,433.5900133868157    ,224.35047506897263   ,-1.5979249512827662e-06 ,-2.666801120930977e-05  ,-1.8466990010308668e-06 ,      0.0 ,      0.0 ,      0.0 ,-1.5514378594205236e-06 ,-2.671449804396274e-05  ,      0.0 ,-2.826593188540142e-05  ,1.5010724105945701e-05 ,0.8204273619130269   ,0.5088790698836891      ,0.0012343729738307132   ,-0.004105710829046708   ,0.007150124027992447   ,-63.07332609171297     ,0.0 ,-73.33719669078133    ,-73.33719669078133      ,        0.0 ,        0.0 , 0.0
 0.0 ,0.0 ,           0.0 ,            0.0 ,            0.0 ,            0.0 ,              0.0 ,                   0.0 ,1288.0 ,115.2741 ,-30.56333 ,           0.0 ,           0.0 ,       0.0 ,-118.6685      ,-18.69648   ,0.0001064815     ,1.03826e-05      ,                 0.0 ,             0.0 ,             0.0 ,                 0.0 ,                 0.0 ,        0.0 ,1.5030621462908338     ,            0.0 ,            0.0 ,            0.0 ,              0.0 ,                   0.0 ,  0.0 ,0.0 ,1144.995838244708    ,1.0                ,0.0 ,-214.13343560966922 ,-431.5101424333985  ,-0.7715715739192531     ,-215.0670707545002  ,          0.0 ,          0.0 ,-214.13068641286972 ,-431.512891630198   ,-215.0670707545002  ,-860.7106487860235  ,125.23627420607684   ,286.9035661714806   ,216.91551386125786   ,-332.18209257831427   ,-549.5587994020435  ,-0.7715715739192531     ,-333.1157277231452  ,          0.0 ,          0.0 ,-332.1793433815148   ,-549.5615988704246  ,-333.1157277231452  ,-1214.856669385744  ,125.23627420607684   ,404.95222314012574   ,216.91551386125786   ,-1.0577302893977998e-06 ,-2.760909396650198e-05  ,-2.9673559047939247e-06 ,      0.0 ,      0.0 ,      0.0 ,-8.779057215268057e-07  ,-2.778892054454358e-05  ,      0.0 ,-2.8666822260869636e-05 ,1.587587552243552e-05  ,0.8204448411199095   ,0.506036070976614       ,0.0033319569046915435   ,-0.008708706952763563   ,0.007237299591043892   ,-53.802770329668256    ,0.0 ,-64.2328041787443     ,-64.2328041787443       ,        0.0 ,        0.0 , 0.0
 0.0 ,0.0 ,           0.0 ,            0.0 ,            0.0 ,            0.0 ,              0.0 ,                   0.0 ,1289.0 ,113.3123 ,-30.5771  ,           0.0 ,           0.0 ,       0.0 ,-119.1171      ,-18.6654    ,0.001835947      ,5.931316e-06     ,                 0.0 ,             0.0 ,             0.0 ,                 0.0 ,                 0.0 ,        0.0 ,2.5061922347994896     ,            0.0 ,            0.0 ,            0.0 ,              0.0 ,                   0.0 ,  0.0 ,0.0 ,1152.0216000611667   ,1.0                ,0.0 ,-214.07875004141889 ,-431.542455751425   ,-0.9208966230795804     ,-214.98745002106358 ,          0.0 ,          0.0 ,-214.07475215509055 ,-431.54640374823333 ,-214.98745002106358 ,-860.6086056074995  ,125.29467496809568   ,286.8695519059932   ,217.01675243919627   ,-331.98936777081525   ,-549.4530734808214  ,-0.9208966230795804     ,-332.8980677504599  ,          0.0 ,          0.0 ,-331.98536988448694  ,-549.4570214776297  ,-332.8980677504599  ,-1214.340458065985  ,125.29467496809568   ,404.7801696353896    ,217.01675243919627   ,-4.08034634930849e-06   ,-3.098089775821783e-05  ,-3.2766025542132216e-07 ,      0.0 ,      0.0 ,      0.0 ,-4.078684533499657e-06  ,-3.0982564045070195e-05 ,      0.0 ,-3.506124458711721e-05  ,1.6835246412104192e-05 ,1.0                  ,0.006549442319051686    ,-0.01133009614655764    ,0.0                     ,0.013105611122318901   ,-117.91061772939638    ,0.0 ,0.0                   ,0.0                     ,        0.0 ,        0.0 , 0.0
 0.0 ,0.0 ,           0.0 ,            0.0 ,            0.0 ,            0.0 ,              0.0 ,                   0.0 ,1290.0 ,111.3486 ,-30.59345 ,           0.0 ,           0.0 ,       0.0 ,-119.5077      ,-18.64268   ,0.003535872      ,5.66603e-05      ,                 0.0 ,             0.0 ,             0.0 ,                 0.0 ,                 0.0 ,        0.0 ,0.5131104890052868     ,            0.0 ,            0.0 ,            0.0 ,              0.0 ,                   0.0 ,  0.0 ,0.0 ,1153.0223281388323   ,1.0                ,0.0 ,-213.60912820671066 ,-430.73280443055245 ,-1.2148325387508547     ,-214.71490533830212 ,          0.0 ,          0.0 ,-213.60223361669375 ,-430.73969865571064 ,-214.71490533830212 ,-859.0568376107065  ,125.04444644819694   ,286.35224599185506  ,216.5833510856143    ,-332.3756232272893    ,-549.499349302745   ,-1.2148325387508547     ,-333.4814003588807  ,          0.0 ,          0.0 ,-332.36877848888633  ,-549.5061936762893  ,-333.4814003588807  ,-1215.3562724559695 ,125.04444644819694   ,405.118840647575     ,216.5833510856143    ,-2.8139144076904192e-06 ,-1.631249738676574e-05  ,-6.451375411181287e-07  ,      0.0 ,      0.0 ,      0.0 ,-2.8061970916163796e-06 ,-1.6320216231225487e-05 ,      0.0 ,-1.9126414301631206e-05 ,8.725969480842767e-06  ,1.0                  ,0.006917775175103931    ,-0.01192953394373536    ,0.0                     ,0.013818019943422338   ,-118.76649502057862    ,0.0 ,0.0                   ,0.0                     ,        0.0 ,        0.0 , 0.0
 0.0 ,0.0 ,           0.0 ,            0.0 ,            0.0 ,            0.0 ,              0.0 ,                   0.0 ,1291.0 ,109.3797 ,-30.6133  ,           0.0 ,           0.0 ,       0.0 ,-119.8678      ,-18.62652   ,0.004942149      ,3.111973e-05     ,                 0.0 ,             0.0 ,             0.0 ,                 0.0 ,                 0.0 ,        0.0 ,1.9960766138964245     ,            0.0 ,            0.0 ,            0.0 ,              0.0 ,                   0.0 ,  0.0 ,0.0 ,1154.0203528558434   ,1.0                ,0.0 ,-213.25621766168064 ,-429.69909615391305 ,-1.6323325332239094     ,-214.3483137601629  ,          0.0 ,          0.0 ,-213.24392923450793 ,-429.7113845810858  ,-214.3483137601629  ,-857.3036275757565  ,124.66011484007147   ,285.76785912652906  ,215.91760885380614   ,-333.29146031881606   ,-549.7343392033871  ,-1.6323325332239094     ,-334.3835066134676  ,          0.0 ,          0.0 ,-333.2791722103894   ,-549.7466273118137  ,-334.3835066134676  ,-1217.4092553999776 ,124.66011484007147   ,405.80315197983384   ,215.91760885380614   ,-1.4302660432426777e-06 ,-1.8053711671514015e-05 ,-4.7305996310818345e-06 ,      0.0 ,      0.0 ,      0.0 ,-1.3994566368389257e-07 ,-1.9344031063086717e-05 ,      0.0 ,-1.9483974169549007e-05 ,1.1584454984362887e-05 ,0.8219391951557886   ,0.5019749886856335      ,-0.011054172565448323   ,-0.00297264504570299    ,0.012372986248879276   ,-56.291783300946555    ,0.0 ,-63.740354239200926   ,-63.740354239200926     ,        0.0 ,        0.0 , 0.0
 0.0 ,0.0 ,           0.0 ,            0.0 ,            0.0 ,            0.0 ,              0.0 ,                   0.0 ,1292.0 ,107.4061 ,-30.64126 ,           0.0 ,           0.0 ,       0.0 ,-120.2583      ,-18.61543   ,0.006280471      ,3.113614e-05     ,                 0.0 ,             0.0 ,             0.0 ,                 0.0 ,                 0.0 ,        0.0 ,0.5044484893775565     ,            0.0 ,            0.0 ,            0.0 ,              0.0 ,                   0.0 ,  0.0 ,0.0 ,1155.0051604573428   ,1.0                ,0.0 ,-213.48342760990127 ,-430.00195755417246 ,-1.7885124664691383     ,-214.4316369287917  ,          0.0 ,          0.0 ,-213.46855450786018 ,-430.01683101370844 ,-214.4316369287917  ,-857.9170716480164  ,124.74721546239661   ,285.9723569194395   ,216.06845446462992   ,-332.9249802561062    ,-549.4435599302365  ,-1.7885124664691383     ,-333.87313966235075 ,          0.0 ,          0.0 ,-332.91010679657023  ,-549.4583838346215  ,-333.87313966235075 ,-1216.2413793164906 ,124.74721546239661   ,405.4139100978475    ,216.06845446462992   ,-2.758090902018891e-06  ,-1.687541487482411e-05  ,-2.5310134880157494e-07 ,      0.0 ,      0.0 ,      0.0 ,-2.7567587264419915e-06 ,-1.687674603077918e-05  ,      0.0 ,-1.9633502249278523e-05 ,9.053536135813867e-06  ,0.821189748797222    ,0.502297798840034       ,-0.00389050486394002    ,-0.002985156715560723   ,0.004999491754400578   ,-55.429751298500086    ,0.0 ,-64.00863324883535    ,-64.00863324883535      ,        0.0 ,        0.0 , 0.0
 0.0 ,0.0 ,           0.0 ,            0.0 ,            0.0 ,            0.0 ,              0.0 ,                   0.0 ,1293.0 ,105.4274 ,-30.68372 ,           0.0 ,           0.0 ,       0.0 ,-120.7554      ,-18.60818   ,0.007581221      ,-3.261167e-06    ,                 0.0 ,             0.0 ,             0.0 ,                 0.0 ,                 0.0 ,        0.0 ,0.0012087770570188283  ,            0.0 ,            0.0 ,            0.0 ,              0.0 ,                   0.0 ,  0.0 ,0.0 ,1156.0356515886717   ,1.0                ,0.0 ,-213.08183777930378 ,-428.82701283033407 ,-2.1413063485160997     ,-214.08541787317375 ,          0.0 ,          0.0 ,-213.06038223923434 ,-428.8484684912813  ,-214.08541787317375 ,-855.9943184375436  ,124.29048301622944   ,285.3314560501734   ,215.27744099537807   ,-333.8427582096127    ,-549.587933260643   ,-2.1413063485160997     ,-334.8462384243604  ,          0.0 ,          0.0 ,-333.82130266954323  ,-549.6092890424679  ,-334.8462384243604  ,-1218.2766800911038 ,124.29048301622944   ,406.09232664662807   ,215.27744099537807   ,-4.420014186695048e-09  ,-4.147716605391587e-08  ,-2.8263407567343977e-09 ,      0.0 ,      0.0 ,      0.0 ,-4.3662018496706835e-09 ,-4.1530968720723784e-08 ,      0.0 ,-4.589718024061092e-08  ,2.2822158084026576e-08 ,0.9995693527451048   ,0.004182976101580775    ,-0.008097572132654253   ,-4.613540602300819e-06  ,0.008651000686854083   ,-120.5834525232159     ,0.0 ,-0.17741305480259334  ,-0.17741305480259334    ,        0.0 ,        0.0 , 0.0
 0.0 ,0.0 ,           0.0 ,            0.0 ,            0.0 ,            0.0 ,              0.0 ,                   0.0 ,1294.0 ,103.4418 ,-30.74879 ,           0.0 ,           0.0 ,       0.0 ,-121.4499      ,-18.6038    ,0.009484179      ,-3.219091e-05    ,                 0.0 ,             0.0 ,             0.0 ,                 0.0 ,                 0.0 ,        0.0 ,0.0                    ,            0.0 ,            0.0 ,            0.0 ,              0.0 ,                   0.0 ,  0.0 ,0.0 ,1155.6168193167355   ,1.0                ,0.0 ,-213.30663885523018 ,-428.476167066916   ,-2.527834355732521      ,-214.02462324944048 ,          0.0 ,          0.0 ,-213.27659784596537 ,-428.50618200783634 ,-214.02462324944048 ,-855.807378496338   ,124.04752643244757   ,285.26913485489416  ,214.85661532742384   ,-334.7673176899711    ,-549.936845901657   ,-2.527834355732521      ,-335.4852266910856  ,          0.0 ,          0.0 ,-334.73727668070626  ,-549.9668361247301  ,-335.4852266910856  ,-1220.1890381460248 ,124.04752643244757   ,406.7298136896351    ,214.85661532742384   ,0.0                     ,0.0                     ,0.0                     ,      0.0 ,      0.0 ,      0.0 ,0.0                     ,0.0                     ,      0.0 ,0.0                     ,0.0                    ,0.9106740588236572   ,0.24781736764345982     ,-0.0043884879571720785  ,-0.00211052211402105    ,0.004682832072924217   ,-98.644104290566       ,0.0 ,-22.814468378959347   ,-22.814468378959347     ,        0.0 ,        0.0 , 0.0
 0.0 ,0.0 ,           0.0 ,            0.0 ,            0.0 ,            0.0 ,              0.0 ,                   0.0 ,1295.0 ,101.4532 ,-30.86309 ,           0.0 ,           0.0 ,       0.0 ,-122.6143      ,-18.60166   ,0.01324767       ,-0.0002039572    ,                 0.0 ,             0.0 ,             0.0 ,                 0.0 ,                 0.0 ,        0.0 ,1.4920313813267876     ,            0.0 ,            0.0 ,            0.0 ,              0.0 ,                   0.0 ,  0.0 ,0.0 ,1156.7247264039725   ,1.0                ,0.0 ,-214.43868394735566 ,-429.58883628750414 ,-2.9629235694804272     ,-214.60976229003387 ,          0.0 ,          0.0 ,-214.3974347532245  ,-429.6300618662893  ,-214.60976229003387 ,-858.6373110213735  ,124.203402466289     ,286.21241941735525  ,215.1265771977384    ,-335.7109878148836    ,-550.8611401550321  ,-2.9629235694804272     ,-335.88206681504386 ,          0.0 ,          0.0 ,-335.66973862075247  ,-550.9023657338173  ,-335.88206681504386 ,-1222.4542501841956 ,124.203402466289     ,407.4847475577112    ,215.1265771977384    ,-2.8416423466644682e-06 ,-3.01197500517869e-05   ,2.87088548682478e-07    ,      0.0 ,      0.0 ,      0.0 ,-2.840271141805157e-06  ,-3.0121124676124786e-05 ,      0.0 ,-3.2961393175181863e-05 ,1.6651134878863714e-05 ,1.0                  ,-0.0006598192671652598  ,-0.003402088680360754   ,0.0                     ,0.0037652604691262503  ,-121.27231357665919    ,0.0 ,0.0                   ,0.0                     ,        0.0 ,        0.0 , 0.0
 0.0 ,0.0 ,           0.0 ,            0.0 ,            0.0 ,            0.0 ,              0.0 ,                   0.0 ,1296.0 ,99.46092 ,-31.09145 ,           0.0 ,           0.0 ,       0.0 ,-124.901       ,-18.60135   ,0.02096314       ,0.0004056511     ,                 0.0 ,             0.0 ,             0.0 ,                 0.0 ,                 0.0 ,        0.0 ,2.2652353910497585     ,            0.0 ,            0.0 ,            0.0 ,              0.0 ,                   0.0 ,  0.0 ,0.0 ,1183.5275351551481   ,1.0                ,0.0 ,-215.52858230904596 ,-429.6015949482988  ,-3.723212139732064      ,-215.12969711349106 ,          0.0 ,          0.0 ,-215.46300883175485 ,-429.6671451284256  ,-215.12969711349106 ,-860.2598944416254  ,123.76723367719748   ,286.7532914569453   ,214.37111187728925   ,-339.4364326826947    ,-553.509468619112   ,-3.723212139732064      ,-339.0375707843042  ,          0.0 ,          0.0 ,-339.37088250256795  ,-553.5750187992387  ,-339.0375707843042  ,-1231.9835921615456 ,123.76723367719748   ,410.6611651277584    ,214.37111187728925   ,-3.7280050779852135e-06 ,-3.151166385680395e-05  ,-2.2241791483371487e-06 ,      0.0 ,      0.0 ,      0.0 ,-3.624604816477476e-06  ,-3.161506662010466e-05  ,      0.0 ,-3.523966573762075e-05  ,1.732468808858155e-05  ,0.7929045927756821   ,0.5655408117710311      ,-0.002335113703347265   ,-0.0016960182135587097  ,0.0013955998044848992  ,-48.01432020744258     ,0.0 ,-75.8914722479494     ,-75.8914722479494       ,        0.0 ,        0.0 , 0.0
 0.0 ,0.0 ,           0.0 ,            0.0 ,            0.0 ,            0.0 ,              0.0 ,                   0.0 ,1297.0 ,97.44761 ,-31.61037 ,           0.0 ,           0.0 ,       0.0 ,-130.0759      ,-18.60279   ,0.03086972       ,-0.001002447     ,                 0.0 ,             0.0 ,             0.0 ,                 0.0 ,                 0.0 ,        0.0 ,1.0467575962511182     ,            0.0 ,            0.0 ,            0.0 ,              0.0 ,                   0.0 ,  0.0 ,0.0 ,1182.6860024558573   ,1.0                ,0.0 ,-218.434282952067   ,-432.03991977044535 ,-3.763074561775718      ,-216.79420962784263 ,          0.0 ,          0.0 ,-218.36755523924933 ,-432.10664544653815 ,-216.79420962784263 ,-867.268412350355   ,123.85988031266399   ,289.08945421717     ,214.53162293677656   ,-348.26161730342915   ,-561.8672541218075  ,-3.763074561775718      ,-346.62154601592965 ,          0.0 ,          0.0 ,-348.1948895906114   ,-561.9339818346252  ,-346.62154601592965 ,-1256.7504111011963 ,123.85988031266399   ,418.9167885685321    ,214.53162293677656   ,-2.0713381656265543e-06 ,-1.2499426555394522e-05 ,-1.9107974950865747e-06 ,      0.0 ,      0.0 ,      0.0 ,-1.98236813317412e-06   ,-1.2588397954310862e-05 ,      0.0 ,-1.4570762729342128e-05 ,6.769271155572995e-06  ,0.8160726167023902   ,0.5027902199829941      ,-0.0023785715978199935  ,-0.001476883403082444   ,0.0013502142471789515  ,-62.28540415344723     ,0.0 ,-67.54011970667645    ,-67.54011970667645      ,        0.0 ,        0.0 , 0.0
 0.0 ,0.0 ,           0.0 ,            0.0 ,            0.0 ,            0.0 ,              0.0 ,                   0.0 ,1298.0 ,113.3238 ,-32.46809 ,           0.0 ,           0.0 ,       0.0 ,-137.767       ,-18.69139   ,0.00210063       ,-5.044137e-06    ,                 0.0 ,             0.0 ,             0.0 ,                 0.0 ,                 0.0 ,        0.0 ,1.9985494896761271     ,            0.0 ,            0.0 ,            0.0 ,              0.0 ,                   0.0 ,  0.0 ,0.0 ,1156.9972182472382   ,1.0                ,0.0 ,-221.46345936631576 ,-445.9567978034966  ,-0.9392179325076842     ,-222.45020506149953 ,          0.0 ,          0.0 ,-221.45941444647863 ,-445.96074292898345 ,-222.45020506149953 ,-889.8703622313119  ,129.33084122525025   ,296.6234708244081   ,224.00763287248316   ,-358.6702100003214    ,-583.1635484375023  ,-0.9392179325076842     ,-359.65695569550513 ,          0.0 ,          0.0 ,-358.6661650804843   ,-583.167543599252   ,-359.65695569550513 ,-1301.4906140002045 ,129.33084122525025   ,433.8302214584138    ,224.00763287248316   ,-1.9948944395541455e-06 ,-1.3931032189687694e-05 ,-2.7746714848096975e-07 ,      0.0 ,      0.0 ,      0.0 ,-1.993281971418744e-06  ,-1.3932649123711984e-05 ,      0.0 ,-1.5925928605169854e-05 ,7.534833468881196e-06  ,1.0                  ,0.011698589048342856    ,-0.009988087546185973   ,0.0                     ,0.015745002211160812   ,-137.20675063400566    ,0.0 ,0.0                   ,0.0                     ,        0.0 ,        0.0 , 0.0
 0.0 ,0.0 ,           0.0 ,            0.0 ,            0.0 ,            0.0 ,              0.0 ,                   0.0 ,1299.0 ,111.3595 ,-32.48227 ,           0.0 ,           0.0 ,       0.0 ,-138.1642      ,-18.66586   ,0.003695412      ,-1.27848e-05     ,                 0.0 ,             0.0 ,             0.0 ,                 0.0 ,                 0.0 ,        0.0 ,1.0058238457865059     ,            0.0 ,            0.0 ,            0.0 ,              0.0 ,                   0.0 ,  0.0 ,0.0 ,1162.9986062626267   ,1.0                ,0.0 ,-221.74526763089153 ,-446.5363059199078  ,-1.3102500032216424     ,-222.53731623113697 ,          0.0 ,          0.0 ,-221.73757454857582 ,-446.54399880809535 ,-222.53731623113697 ,-890.8188895878081  ,129.56181098952783   ,296.93961326292685  ,224.40762887276009   ,-358.5057426430753    ,-583.2968807379633  ,-1.3102500032216424     ,-359.297841250165   ,          0.0 ,          0.0 ,-358.49809935978703  ,-583.3045238271234  ,-359.297841250165   ,-1301.1001646175148 ,129.56181098952783   ,433.70018808098246   ,224.40762887276009   ,-4.757601368581956e-06  ,-3.189739160983116e-05  ,-3.0183699432226736e-06 ,      0.0 ,      0.0 ,      0.0 ,-4.6477121941700245e-06 ,-3.2007280795480136e-05 ,      0.0 ,-3.6654993475855854e-05 ,1.7300858524898234e-05 ,0.8222473714592444   ,0.5017269093318405      ,-0.0004697131420088479  ,-0.0032234406839571476  ,0.004007527481564381   ,-63.74815583962602     ,0.0 ,-73.0078423938326     ,-73.0078423938326       ,        0.0 ,        0.0 , 0.0
 0.0 ,0.0 ,           0.0 ,            0.0 ,            0.0 ,            0.0 ,              0.0 ,                   0.0 ,1300.0 ,109.3953 ,-32.49986 ,           0.0 ,           0.0 ,       0.0 ,-138.5335      ,-18.64651   ,0.00547097       ,1.497683e-05     ,                 0.0 ,             0.0 ,             0.0 ,                 0.0 ,                 0.0 ,        0.0 ,1.999449690513822      ,            0.0 ,            0.0 ,            0.0 ,              0.0 ,                   0.0 ,  0.0 ,0.0 ,1164.4947064779099   ,1.0                ,0.0 ,-220.97852137279517 ,-444.86463814493754 ,-1.6476287393131095     ,-221.97726624029633 ,          0.0 ,          0.0 ,-220.96643236615802 ,-444.87672715157464 ,-221.97726624029633 ,-887.8204257580289  ,128.98397517077262   ,295.9401252435045   ,223.4067278857002    ,-359.5210886512001    ,-583.4072054783733  ,-1.6476287393131095     ,-360.5198335187012  ,          0.0 ,          0.0 ,-359.50894995379133  ,-583.419344175782   ,-360.5198335187012  ,-1303.447778184185  ,128.98397517077262   ,434.48274254942487   ,223.4067278857002    ,-1.383510231941602e-06  ,-1.9305611974606796e-05 ,-3.7759659266785642e-06 ,      0.0 ,      0.0 ,      0.0 ,-7.109489548183068e-07  ,-1.9978172265265425e-05 ,      0.0 ,-2.0689118738427864e-05 ,1.1633107284466216e-05 ,0.6445794920100958   ,0.9971921822020754      ,0.0071987326695824175   ,-0.010231394505288361   ,2.2542610316915023e-05 ,-0.346518000606094     ,0.0 ,-138.1833190490704    ,-138.1833190490704      ,        0.0 ,        0.0 , 0.0
 0.0 ,0.0 ,           0.0 ,            0.0 ,            0.0 ,            0.0 ,              0.0 ,                   0.0 ,1301.0 ,107.4312 ,-32.52344 ,           0.0 ,           0.0 ,       0.0 ,-138.9122      ,-18.63223   ,0.007191638      ,5.95795e-06      ,                 0.0 ,             0.0 ,             0.0 ,                 0.0 ,                 0.0 ,        0.0 ,1.0066810774075599     ,            0.0 ,            0.0 ,            0.0 ,              0.0 ,                   0.0 ,  0.0 ,0.0 ,1167.5084826530085   ,1.0                ,0.0 ,-221.49643427383535 ,-445.7168896863568  ,-1.8654546399188086     ,-222.1905958168154  ,          0.0 ,          0.0 ,-221.48083388725897 ,-445.7325398622411  ,-222.1905958168154  ,-889.4039695663155  ,129.26740674170577   ,296.4679567448078   ,223.89770484360292   ,-358.81194664011423   ,-583.0324515952201  ,-1.8654546399188086     ,-359.5061078490404  ,          0.0 ,          0.0 ,-358.796345919484    ,-583.0481017711044  ,-359.5061078490404  ,-1301.3503069118756 ,129.26740674170577   ,433.78351865367097   ,223.89770484360292   ,-4.5354769339529765e-06 ,-3.378218870934311e-05  ,-1.4477764525431851e-06 ,      0.0 ,      0.0 ,      0.0 ,-4.507369703554457e-06  ,-3.381029095906423e-05  ,      0.0 ,-3.831766215193141e-05  ,1.8367826103664495e-05 ,0.644559173786061    ,0.9966876172805659      ,0.0016691875833760245   ,-0.0048729072726169075  ,5.016476949850205e-05  ,-0.49487308567945687   ,0.0 ,-136.81546679365619   ,-136.81546679365619     ,        0.0 ,        0.0 , 0.0
 0.0 ,0.0 ,           0.0 ,            0.0 ,            0.0 ,            0.0 ,              0.0 ,                   0.0 ,1302.0 ,105.4697 ,-32.55531 ,           0.0 ,           0.0 ,       0.0 ,-139.3332      ,-18.62199   ,0.009007556      ,-1.301378e-05    ,                 0.0 ,             0.0 ,             0.0 ,                 0.0 ,                 0.0 ,        0.0 ,0.5019282493105219     ,            0.0 ,            0.0 ,            0.0 ,              0.0 ,                   0.0 ,  0.0 ,0.0 ,1168.4760400595421   ,1.0                ,0.0 ,-221.06245172330455 ,-444.48175195043876 ,-2.2137184337237397     ,-221.80975964009684 ,          0.0 ,          0.0 ,-221.04035014146152 ,-444.50390372510674 ,-221.80975964009684 ,-887.3540139152249  ,128.7951924911795    ,295.78465471031996  ,223.07987566807427   ,-359.5723065120313    ,-582.9916067391655  ,-2.2137184337237397     ,-360.31956462164857 ,          0.0 ,          0.0 ,-359.5502049301883   ,-583.0137087066582  ,-360.31956462164857 ,-1302.8833288598798 ,128.7951924911795    ,434.2945090904869    ,223.07987566807427   ,-1.8353508364288545e-06 ,-1.722282965491421e-05  ,-1.1735995978293746e-06 ,      0.0 ,      0.0 ,      0.0 ,-1.8130059946260488e-06 ,-1.7245170481291022e-05 ,      0.0 ,-1.9058180491343066e-05 ,9.4765910604349e-06    ,0.8211795785957132   ,0.5034632634562537      ,-0.0024830692763553566  ,-0.0019157100510717184  ,0.003642777904913212   ,-64.83941004164386     ,0.0 ,-73.66836050107982    ,-73.66836050107982      ,        0.0 ,        0.0 , 0.0
 0.0 ,0.0 ,           0.0 ,            0.0 ,            0.0 ,            0.0 ,              0.0 ,                   0.0 ,1303.0 ,103.5212 ,-32.59832 ,           0.0 ,           0.0 ,       0.0 ,-139.8337      ,-18.61495   ,0.01066028       ,-7.769954e-05    ,                 0.0 ,             0.0 ,             0.0 ,                 0.0 ,                 0.0 ,        0.0 ,0.0                    ,            0.0 ,            0.0 ,            0.0 ,              0.0 ,                   0.0 ,  0.0 ,0.0 ,1169.9081731749588   ,0.9999999999999999 ,0.0 ,-220.8058701233877  ,-443.14980320269194 ,-2.5465207633335343     ,-221.44545018168247 ,          0.0 ,          0.0 ,-220.77622637766837 ,-443.17939806665447 ,-221.44545018168247 ,-885.4010746260053  ,128.2118244721411    ,295.1337078359207   ,222.06932224900783   ,-360.6340119835712    ,-582.9779450628755  ,-2.5465207633335343     ,-361.27354150423673 ,          0.0 ,          0.0 ,-360.60436823785193  ,-583.0075382709656  ,-361.27354150423673 ,-1304.8853975613943 ,128.2118244721411    ,434.9618496961043    ,222.06932224900783   ,0.0                     ,0.0                     ,0.0                     ,      0.0 ,      0.0 ,      0.0 ,0.0                     ,0.0                     ,      0.0 ,0.0                     ,0.0                    ,0.8230037042406637   ,0.49562598113568995     ,-0.0006349277635687971  ,-0.002609281023056345   ,0.0028993798535178377  ,-66.23216398320595     ,0.0 ,-73.59263773304012    ,-73.59263773304012      ,        0.0 ,        0.0 , 0.0
 0.0 ,0.0 ,           0.0 ,            0.0 ,            0.0 ,            0.0 ,              0.0 ,                   0.0 ,1304.0 ,101.6124 ,-32.65505 ,           0.0 ,           0.0 ,       0.0 ,-140.4464      ,-18.61042   ,0.01188344       ,-9.023064e-06    ,                 0.0 ,             0.0 ,             0.0 ,                 0.0 ,                 0.0 ,        0.0 ,1.9347388588856118     ,            0.0 ,            0.0 ,            0.0 ,              0.0 ,                   0.0 ,  0.0 ,0.0 ,1171.7479550513556   ,1.0                ,0.0 ,-221.5082942164134  ,-442.86769423529597 ,-3.0043546086560515     ,-221.6502439082687  ,          0.0 ,          0.0 ,-221.46707869152357 ,-442.90890590241173 ,-221.6502439082687  ,-886.0262759786001  ,127.7966684691314    ,295.34207745332606  ,221.35026893859353   ,-361.8469623400663    ,-583.2063623589489  ,-3.0043546086560515     ,-361.9888595083177  ,          0.0 ,          0.0 ,-361.8057468151766   ,-583.2475253602347  ,-361.9888595083177  ,-1307.042358392349  ,127.7966684691314    ,435.68074557697895   ,221.35026893859353   ,-1.7795157371287089e-06 ,-2.082249265586177e-05  ,-3.494368680653282e-06  ,      0.0 ,      0.0 ,      0.0 ,-1.0239408174629376e-06 ,-2.157806947458338e-05  ,      0.0 ,-2.2602008392990477e-05 ,1.2326716775393203e-05 ,1.0                  ,-0.000129661538997921   ,-0.004512308709985241   ,0.0                     ,0.004632415664533959   ,-140.33866812365295    ,0.0 ,0.0                   ,0.0                     ,        0.0 ,        0.0 , 0.0
 0.0 ,0.0 ,           0.0 ,            0.0 ,            0.0 ,            0.0 ,              0.0 ,                   0.0 ,1305.0 ,99.80268 ,-32.71866 ,           0.0 ,           0.0 ,       0.0 ,-141.1088      ,-18.60779   ,0.01216753       ,-0.0002294933    ,                 0.0 ,             0.0 ,             0.0 ,                 0.0 ,                 0.0 ,        0.0 ,2.4271089207648058     ,            0.0 ,            0.0 ,            0.0 ,              0.0 ,                   0.0 ,  0.0 ,0.0 ,1189.4623256979614   ,1.0                ,0.0 ,-223.0077902193946  ,-444.38737542362065 ,-3.1862823463700214     ,-222.48003333151618 ,          0.0 ,          0.0 ,-222.96180298550215 ,-444.4333532697168  ,-222.48003333151618 ,-889.8752451457033  ,128.0061817882179    ,296.6250811385211   ,221.71318073978898   ,-362.5352218553787    ,-583.9148070596048  ,-3.1862823463700214     ,-362.00746496750025 ,          0.0 ,          0.0 ,-362.4892346214862   ,-583.960784905701   ,-362.00746496750025 ,-1308.4576383235155 ,128.0061817882179    ,436.15251277450517   ,221.71318073978898   ,-4.282796711850638e-06  ,-3.610334383175884e-05  ,-1.5371336612025492e-06 ,      0.0 ,      0.0 ,      0.0 ,-4.2305631542510535e-06 ,-3.615557939898172e-05  ,      0.0 ,-4.038614311619343e-05  ,1.9769429233334416e-05 ,0.8386977193513192   ,0.4438793570616582      ,-0.0017685638974020074  ,-0.0007904984106207495  ,0.0014489824622652384  ,-74.19670690186095     ,0.0 ,-65.32982792254275    ,-65.32982792254275      ,        0.0 ,        0.0 , 0.0
 0.0 ,0.0 ,           0.0 ,            0.0 ,            0.0 ,            0.0 ,              0.0 ,                   0.0 ,1306.0 ,80.97814 ,-31.74016 ,           0.0 ,           0.0 ,       0.0 ,-131.1847      ,-18.62169   ,-0.1777854       ,-0.03385864      ,                 0.0 ,             0.0 ,             0.0 ,                 0.0 ,                 0.0 ,        0.0 ,2.8310189431680084     ,            0.0 ,            0.0 ,            0.0 ,              0.0 ,                   0.0 ,  0.0 ,0.0 ,1156.532614283766    ,1.0                ,0.0 ,-222.13055936096333 ,-466.544604594416   ,10.759315785989028      ,-231.38807211015816 ,          0.0 ,          0.0 ,-221.2401256521076  ,-467.4350430737969  ,-231.38807211015816 ,-920.0632360655375  ,139.31806646955366   ,306.68771202184587  ,241.30596998014164   ,-352.06024225865383   ,-596.4743167166329  ,10.759315785989028      ,-361.31775500784863 ,          0.0 ,          0.0 ,-351.16980854979806  ,-597.3647259714875  ,-361.31775500784863 ,-1309.8527269109316 ,139.31806646955366   ,436.61739491953625   ,241.30596998014164   ,3.91579798924567e-06    ,-4.136522961796389e-05  ,4.339293243910866e-06   ,      0.0 ,      0.0 ,      0.0 ,4.0569494768065985e-06  ,-4.1506375260489965e-05 ,      0.0 ,-3.744942913163603e-05  ,2.5216770551907227e-05 ,0.8839614534431137   ,0.3383531380916367      ,-0.0007344609306490885  ,-7.324479381442427e-05  ,0.0016034951744285616  ,-75.37757955717755     ,0.0 ,-54.55150377701764    ,-54.55150377701764      ,        0.0 ,        0.0 , 0.0
 0.0 ,0.0 ,           0.0 ,            0.0 ,            0.0 ,            0.0 ,              0.0 ,                   0.0 ,1307.0 ,83.87529 ,-32.70509 ,           0.0 ,           0.0 ,       0.0 ,-140.8768      ,-18.61741   ,-0.2093698       ,-0.001275759     ,                 0.0 ,             0.0 ,             0.0 ,                 0.0 ,                 0.0 ,        0.0 ,1.7670359126748143     ,            0.0 ,            0.0 ,            0.0 ,              0.0 ,                   0.0 ,  0.0 ,0.0 ,1153.8287888549419   ,1.0                ,0.0 ,-228.92177270941824 ,-467.3813827088969  ,15.746816704049476      ,-232.94756417826284 ,          0.0 ,          0.0 ,-227.8385459034981  ,-468.464634917224   ,-232.94756417826284 ,-929.2507363660592  ,137.4772243427764    ,309.7502290569576   ,238.11751360802617   ,-368.55678687490126   ,-607.01639687438    ,15.746816704049476      ,-372.58256971082    ,          0.0 ,          0.0 ,-367.47355143605523  ,-608.0996490827071  ,-372.58256971082    ,-1348.1560772528806 ,137.4772243427764    ,449.38521782003374   ,238.11751360802617   ,4.019570660115149e-06   ,-4.409113041887498e-05  ,6.185735356402858e-06   ,      0.0 ,      0.0 ,      0.0 ,4.2851083049042e-06     ,-4.4356663867856196e-05 ,      0.0 ,-4.007155955798829e-05  ,2.6937433269252103e-05 ,0.9697918731062746   ,0.08365640035195157     ,-0.000441030901529892   ,-2.887136149271136e-05  ,0.002684609962218033   ,-127.4719409130884     ,0.0 ,-12.162877412227461   ,-12.162877412227461     ,        0.0 ,        0.0 , 0.0
 0.0 ,0.0 ,           0.0 ,            0.0 ,            0.0 ,            0.0 ,              0.0 ,                   0.0 ,1308.0 ,77.40072 ,-31.75751 ,           0.0 ,           0.0 ,       0.0 ,-131.2945      ,-18.62807   ,0.3867498        ,0.01533897       ,                 0.0 ,             0.0 ,             0.0 ,                 0.0 ,                 0.0 ,        0.0 ,3.453566651412707      ,            0.0 ,            0.0 ,            0.0 ,              0.0 ,                   0.0 ,  0.0 ,0.0 ,1149.9649095167022   ,1.0                ,0.0 ,-226.14684407690757 ,-469.0224530477303  ,-10.115228929219551     ,-232.8633740227257  ,          0.0 ,          0.0 ,-225.2241704259581  ,-469.94519572783724 ,-232.8633740227257  ,-928.0326711473635  ,139.15367707846303   ,309.3442025254178   ,241.02126228377094   ,-355.5991280455141    ,-598.4747370163368  ,-10.115228929219551     ,-362.31565799133216 ,          0.0 ,          0.0 ,-354.67645439456453  ,-599.3974979108888  ,-362.31565799133216 ,-1316.3894995915682 ,139.15367707846303   ,438.7964864940243    ,241.02126228377094   ,5.9524048705625096e-06  ,-5.736092696056703e-05  ,-5.896564279453277e-06  ,      0.0 ,      0.0 ,      0.0 ,6.186779102153097e-06   ,-5.759530069608719e-05  ,      0.0 ,-5.140852292204554e-05  ,3.517693150891924e-05  ,0.7679371568961755   ,0.6895874666285938      ,-0.001710495116952692   ,-5.9089511093467423e-05 ,0.0007058165907719234  ,-32.18163760544911     ,0.0 ,-97.26898589943663    ,-97.26898589943663      ,        0.0 ,        0.0 , 0.0
 0.0 ,0.0 ,           0.0 ,            0.0 ,            0.0 ,            0.0 ,              0.0 ,                   0.0 ,1309.0 ,73.75261 ,-31.95776 ,           0.0 ,           0.0 ,       0.0 ,-133.2292      ,-18.63484   ,0.3520916        ,0.01854424       ,                 0.0 ,             0.0 ,             0.0 ,                 0.0 ,                 0.0 ,        0.0 ,1.5486280438995716     ,            0.0 ,            0.0 ,            0.0 ,              0.0 ,                   0.0 ,  0.0 ,0.0 ,1199.9118487963492   ,1.0                ,0.0 ,-229.43659451070323 ,-452.19824186235115 ,-11.914264198907318     ,-226.6585517896306  ,          0.0 ,          0.0 ,-228.7835171738133  ,-452.85131923249025 ,-226.6585517896306  ,-908.2933494802332  ,130.02487947742028   ,302.7644444554597   ,225.20970739948638   ,-361.96744489478954   ,-584.7290922464374  ,-11.914264198907318     ,-359.18940217371687 ,          0.0 ,          0.0 ,-361.3144062403515   ,-585.3822082990285  ,-359.18940217371687 ,-1305.8860940115023 ,130.02487947742028   ,435.29529483954593   ,225.20970739948638   ,2.4318698523581766e-06  ,-2.1503254024071245e-05 ,-2.9347233158647626e-06 ,      0.0 ,      0.0 ,      0.0 ,2.5214920545147327e-06  ,-2.1592877000541825e-05 ,      0.0 ,-1.9071385333184104e-05 ,1.3254641611044566e-05 ,0.6444978950912137   ,1.0                     ,-0.002098879012094445   ,-0.0001237756780450522  ,0.0                    ,0.0021029918530506907  ,0.0 ,-132.53085038408628   ,-132.53085038408628     ,        0.0 ,        0.0 , 0.0
 0.0 ,0.0 ,           0.0 ,            0.0 ,            0.0 ,            0.0 ,              0.0 ,                   0.0 ,1310.0 ,70.24982 ,-31.1672  ,           0.0 ,           0.0 ,       0.0 ,-125.2583      ,-18.64137   ,-0.02237653      ,-0.006265694     ,                 0.0 ,             0.0 ,             0.0 ,                 0.0 ,                 0.0 ,        0.0 ,1.3727387962514532     ,            0.0 ,            0.0 ,            0.0 ,              0.0 ,                   0.0 ,  0.0 ,0.0 ,1202.2154502063568   ,1.0                ,0.0 ,-225.22111582467434 ,-431.44133192684274 ,-6.15040184511088       ,-217.53783750561865 ,          0.0 ,          0.0 ,-224.9458758811507  ,-431.7165294941608  ,-217.53783750561865 ,-874.2002273440471  ,121.58325695465179   ,291.4000721103006   ,210.5883524773935    ,-349.8326204093422    ,-556.052863061539   ,-6.15040184511088       ,-342.14936864031495 ,          0.0 ,          0.0 ,-349.5574649289356   ,-556.3280919919173  ,-342.14936864031495 ,-1248.035108637203  ,121.58325695465179   ,416.0116032449969    ,210.5883524773935    ,-1.637076174672847e-06  ,-1.857400358671541e-05  ,-1.264209426602242e-06  ,      0.0 ,      0.0 ,      0.0 ,-1.6078821149709319e-06 ,-1.860319820299857e-05  ,      0.0 ,-2.0211079761388256e-05 ,1.0307822567494736e-05 ,0.6296302286605302   ,1.0                     ,-0.0023275611584617525  ,-0.00010522979919566766 ,0.0                    ,0.002331264577603936   ,0.0 ,-124.61153113469629   ,-124.61153113469629     ,        0.0 ,        0.0 , 0.0
 0.0 ,0.0 ,           0.0 ,            0.0 ,            0.0 ,            0.0 ,              0.0 ,                   0.0 ,1311.0 ,64.34354 ,-30.26562 ,           0.0 ,           0.0 ,       0.0 ,-116.1286      ,-18.65276   ,-0.03821227      ,-0.001395293     ,                 0.0 ,             0.0 ,             0.0 ,                 0.0 ,                 0.0 ,        0.0 ,1.234669751382901      ,            0.0 ,            0.0 ,            0.0 ,              0.0 ,                   0.0 ,  0.0 ,0.0 ,1194.0686951481987   ,1.0                ,0.0 ,-212.07873492550948 ,-422.5266273988821  ,4.862435010244825       ,-211.23399378246887 ,          0.0 ,          0.0 ,-211.96026722988194 ,-422.64509509450966 ,-211.23399378246887 ,-845.8393627712976  ,121.84986756009364   ,281.94645203562015  ,211.05013945583386   ,-326.3634580642006    ,-536.8113505375733  ,4.862435010244825       ,-325.51871692116003 ,          0.0 ,          0.0 ,-326.24495543427923  ,-536.9298182332009  ,-325.51871692116003 ,-1188.693649522247  ,121.84986756009364   ,396.2311751743114    ,211.05013945583386   ,-2.9972311757100508e-06 ,-4.854765670176662e-05  ,1.1783424413418577e-06  ,      0.0 ,      0.0 ,      0.0 ,-2.9882274573445412e-06 ,-4.855666330013556e-05  ,      0.0 ,-5.1544884072086405e-05 ,2.721779877318824e-05  ,0.7618320946026873   ,0.6499038525142453      ,-0.0017609836480892503  ,-1.3901656583563866e-05 ,0.0007532263448204714  ,-42.48791744216481     ,0.0 ,-71.7950521541282     ,-71.7950521541282       ,        0.0 ,        0.0 , 0.0
 0.0 ,0.0 ,           0.0 ,            0.0 ,            0.0 ,            0.0 ,              0.0 ,                   0.0 ,1312.0 ,61.93179 ,-29.82415 ,           0.0 ,           0.0 ,       0.0 ,-111.6669      ,-18.65746   ,-0.02090603      ,-0.0005928269    ,                 0.0 ,             0.0 ,             0.0 ,                 0.0 ,                 0.0 ,        0.0 ,2.496285824450144      ,            0.0 ,            0.0 ,            0.0 ,              0.0 ,                   0.0 ,  0.0 ,0.0 ,1192.487106696649    ,1.0                ,0.0 ,-208.6591680010726  ,-419.60915911469885 ,4.027358273523309       ,-208.96120135327232 ,          0.0 ,          0.0 ,-208.57659663482082 ,-419.6917057527468  ,-208.96120135327232 ,-837.2294948307072  ,121.77659851827254   ,279.0764956118614   ,210.9232420209858    ,-318.56194373983806   ,-529.5119348534643  ,4.027358273523309       ,-318.8640018202416  ,          0.0 ,          0.0 ,-318.4793387352496   ,-529.594506219716   ,-318.8640018202416  ,-1166.9377375207246 ,121.77659851827254   ,388.97927135062685   ,210.9232420209858    ,1.2195367528432004e-06  ,-5.053160336964541e-05  ,3.6372217733610255e-08  ,      0.0 ,      0.0 ,      0.0 ,1.2242928827282951e-06  ,-5.053636027227042e-05  ,      0.0 ,-4.9312062123959885e-05 ,2.956100405121919e-05  ,0.8509892269164498   ,0.41470371369295805     ,-0.0010333663494586144  ,-8.204002270259326e-06  ,0.0016309103604775768  ,-60.49051075225492     ,0.0 ,-49.41125594258651    ,-49.41125594258651      ,        0.0 ,        0.0 , 0.0
 0.0 ,0.0 ,           0.0 ,            0.0 ,            0.0 ,            0.0 ,              0.0 ,                   0.0 ,1313.0 ,59.72799 ,-29.48644 ,           0.0 ,           0.0 ,       0.0 ,-108.2466      ,-18.66179   ,0.001850695      ,-9.640292e-05    ,                 0.0 ,             0.0 ,             0.0 ,                 0.0 ,                 0.0 ,        0.0 ,3.9906156514288575     ,            0.0 ,            0.0 ,            0.0 ,              0.0 ,                   0.0 ,  0.0 ,0.0 ,1216.1587578519402   ,1.0                ,0.0 ,-206.74799894868823 ,-417.4205480228528  ,2.6638477058600727      ,-207.40914759813734 ,          0.0 ,          0.0 ,-206.71349787662723 ,-417.4550486256964  ,-207.40914759813734 ,-831.5776945696784  ,121.47140462383751   ,277.19256369249786  ,210.39468673688214   ,-313.106620089324     ,-523.7791691634885  ,2.6638477058600727      ,-313.76776920799045 ,          0.0 ,          0.0 ,-313.07211901726293  ,-523.8136702355496  ,-313.76776920799045 ,-1150.6531107030587 ,121.47140462383751   ,383.5511848331336    ,210.39468673688214   ,2.4345630721924673e-06  ,-5.2902995952345954e-05 ,-1.580319159892872e-06  ,      0.0 ,      0.0 ,      0.0 ,2.4470180299104157e-06  ,-5.2915451406410045e-05 ,      0.0 ,-5.046843325296538e-05  ,3.128240316066891e-05  ,0.6435203096003158   ,0.995290641681847       ,-0.002448951190820263   ,-2.132986091683414e-05  ,1.718425311388199e-05  ,-0.3690453072699083    ,0.0 ,-105.98712715670678   ,-105.98712715670678     ,        0.0 ,        0.0 , 0.0
 0.0 ,0.0 ,           0.0 ,            0.0 ,            0.0 ,            0.0 ,              0.0 ,                   0.0 ,1314.0 ,57.78471 ,-28.91832 ,           0.0 ,           0.0 ,       0.0 ,-102.5273      ,-18.66559   ,0.001820055      ,-0.001253119     ,                 0.0 ,             0.0 ,             0.0 ,                 0.0 ,                 0.0 ,        0.0 ,2.9839084451752775     ,            0.0 ,            0.0 ,            0.0 ,              0.0 ,                   0.0 ,  0.0 ,0.0 ,1217.4715852772297   ,1.0                ,0.0 ,-204.29619253676444 ,-412.4442623024173  ,1.5275532835310597      ,-204.93369733705393 ,          0.0 ,          0.0 ,-204.28261715352977 ,-412.4578365695153  ,-204.93369733705393 ,-821.6741521762358  ,120.00252838650817   ,273.89141739207855  ,207.85054612266651   ,-305.2622812842787    ,-513.4104007383726  ,1.5275532835310597      ,-305.89978608456823 ,          0.0 ,          0.0 ,-305.248705901044    ,-513.4239750054705  ,-305.89978608456823 ,-1124.5720681072194 ,120.00252838650817   ,374.85750613959283   ,207.85054612266651   ,1.732638522515593e-06   ,-4.842277702625762e-05  ,-2.3719475223286745e-06 ,      0.0 ,      0.0 ,      0.0 ,1.7620245861188737e-06  ,-4.845216313450637e-05  ,      0.0 ,-4.669014302787935e-05  ,2.849619450259772e-05  ,0.8196550817425177   ,0.5013011192874851      ,-0.0012582494890036283  ,-1.1602345303433594e-05 ,0.0018144822404371488  ,-53.74176591583648     ,0.0 ,-47.22307097268492    ,-47.22307097268492      ,        0.0 ,        0.0 , 0.0
 0.0 ,0.0 ,           0.0 ,            0.0 ,            0.0 ,            0.0 ,              0.0 ,                   0.0 ,1315.0 ,55.92322 ,-28.61868 ,           0.0 ,           0.0 ,       0.0 ,-99.49427      ,-18.66925   ,-3.642319e-05    ,-0.0003458472    ,                 0.0 ,             0.0 ,             0.0 ,                 0.0 ,                 0.0 ,        0.0 ,1.4845604531772323     ,            0.0 ,            0.0 ,            0.0 ,              0.0 ,                   0.0 ,  0.0 ,0.0 ,1215.1305243223826   ,1.0                ,0.0 ,-202.77971400612927 ,-408.82325907885183 ,0.7801207147042303      ,-203.42127099750502 ,          0.0 ,          0.0 ,-202.77605347056829 ,-408.8269196144129  ,-203.42127099750502 ,-815.0242945720247  ,118.77792857038014   ,271.6747818629238   ,205.7293793867234    ,-302.1777992252701    ,-508.22139328124615 ,0.7801207147042303      ,-302.8194051998993  ,          0.0 ,          0.0 ,-302.1741876729626   ,-508.2251033272686  ,-302.8194051998993  ,-1113.2187962001303 ,118.77792857038014   ,371.0728670820646    ,205.7293793867234    ,1.4619025462266505e-07  ,-1.5522539911809642e-05 ,-1.614762911440471e-06  ,      0.0 ,      0.0 ,      0.0 ,1.889888122959952e-07   ,-1.5565339030835064e-05 ,      0.0 ,-1.5376351887764383e-05 ,9.042078728492954e-06  ,0.6390335434251371   ,1.0                     ,-0.0037984049222060438  ,-6.179690357250751e-05  ,0.0                    ,0.0037994590369989593  ,0.0 ,-99.39814395385804    ,-99.39814395385804      ,        0.0 ,        0.0 , 0.0
 0.0 ,0.0 ,           0.0 ,            0.0 ,            0.0 ,            0.0 ,              0.0 ,                   0.0 ,1316.0 ,54.08618 ,-28.6271  ,           0.0 ,           0.0 ,       0.0 ,-99.54188      ,-18.67291   ,0.00341274       ,-1.014844e-05    ,                 0.0 ,             0.0 ,             0.0 ,                 0.0 ,                 0.0 ,        0.0 ,2.63856958292478       ,            0.0 ,            0.0 ,            0.0 ,              0.0 ,                   0.0 ,  0.0 ,0.0 ,1197.8428135860024   ,1.0                ,0.0 ,-203.09117823236673 ,-408.3669312510425  ,0.11043004573232507     ,-203.20594130829704 ,          0.0 ,          0.0 ,-203.09015744267043 ,-408.3679520407388  ,-203.20594130829704 ,-814.6641146486645  ,118.4837860547619    ,271.55469283520756  ,205.2199285790966    ,-302.0756421749185    ,-507.3514470212773  ,0.11043004573232507     ,-302.19046910780713 ,          0.0 ,          0.0 ,-302.07466112841405  ,-507.3524678109736  ,-302.19046910780713 ,-1111.61771007647   ,118.4837860547619    ,370.5391567777594    ,205.2199285790966    ,3.3128531907422297e-07  ,-3.559582545291229e-05  ,-2.792944689650899e-06  ,      0.0 ,      0.0 ,      0.0 ,3.9617260807648217e-07  ,-3.566071399952714e-05  ,      0.0 ,-3.5264542008317385e-05 ,2.070426809709233e-05  ,0.7253681170205037   ,0.7579829021543936      ,-0.00407614773668574    ,-2.4351200801318892e-05 ,0.0008794476306996892  ,-16.936544246307875    ,0.0 ,-82.04390755629004    ,-82.04390755629004      ,        0.0 ,        0.0 , 0.0
 0.0 ,0.0 ,           0.0 ,            0.0 ,            0.0 ,            0.0 ,              0.0 ,                   0.0 ,1317.0 ,52.25628 ,-28.67567 ,           0.0 ,           0.0 ,       0.0 ,-99.99107      ,-18.67657   ,0.003865052      ,0.0002015876     ,                 0.0 ,             0.0 ,             0.0 ,                 0.0 ,                 0.0 ,        0.0 ,2.1247673018436557     ,            0.0 ,            0.0 ,            0.0 ,              0.0 ,                   0.0 ,  0.0 ,0.0 ,1197.1349412959535   ,1.0                ,0.0 ,-203.38701827757362 ,-409.06784322314456 ,-0.1863953865706387     ,-203.38907364340312 ,          0.0 ,          0.0 ,-203.38639454718725 ,-409.068466953531   ,-203.38907364340312 ,-815.8439476208516  ,118.74982321815435   ,271.9479533658606   ,205.68070780309964   ,-302.2073718010044    ,-507.88814663630313 ,-0.1863953865706387     ,-302.20943964356405 ,          0.0 ,          0.0 ,-302.20673561108083  ,-507.88877036668947 ,-302.20943964356405 ,-1112.3051082083368 ,118.74982321815435   ,370.76830688929135   ,205.68070780309964   ,2.4789068279817404e-07  ,-4.309245469062113e-05  ,-2.740981758071621e-06  ,      0.0 ,      0.0 ,      0.0 ,2.966602519506525e-07   ,-4.314122420569223e-05  ,      0.0 ,-4.2844560696166375e-05 ,2.4994157125781666e-05 ,0.728756989784044    ,0.7497278966293026      ,-0.0030037802619237186  ,-1.4509851174632282e-05 ,0.0009094448710396485  ,-17.5154473779147      ,0.0 ,-81.30191503774331    ,-81.30191503774331      ,        0.0 ,        0.0 , 0.0
 0.0 ,0.0 ,           0.0 ,            0.0 ,            0.0 ,            0.0 ,              0.0 ,                   0.0 ,1318.0 ,50.4206  ,-28.7534  ,           0.0 ,           0.0 ,       0.0 ,-100.7315      ,-18.68025   ,-0.0004117333    ,0.0004476862     ,                 0.0 ,             0.0 ,             0.0 ,                 0.0 ,                 0.0 ,        0.0 ,2.7433909053097496     ,            0.0 ,            0.0 ,            0.0 ,              0.0 ,                   0.0 ,  0.0 ,0.0 ,1197.8462036280296   ,1.0                ,0.0 ,-203.83694505317396 ,-409.45785419980655 ,0.010149270570021546    ,-203.68841190353808 ,          0.0 ,          0.0 ,-203.83676939946707 ,-409.45802985351344 ,-203.68841190353808 ,-816.9832111565186  ,118.75835635270244   ,272.3277201412584   ,205.69552687799407   ,-303.3378089620072    ,-508.95866781410206 ,0.010149270570021546    ,-303.1893008842051  ,          0.0 ,          0.0 ,-303.3376333083004   ,-508.9588434678089  ,-303.1893008842051  ,-1115.48587824939   ,118.75835635270244   ,371.8286091219255    ,205.69552687799407   ,-1.6632456000727686e-06 ,-4.3456418389361756e-05 ,-2.579118717777496e-06  ,      0.0 ,      0.0 ,      0.0 ,-1.6200357772531653e-06 ,-4.3499629005037724e-05 ,      0.0 ,-4.511966437851713e-05  ,2.4705751528485275e-05 ,0.7294122955242516   ,0.7478486772622585      ,-0.002465548307419324   ,-1.2506490236034396e-05 ,0.0014330598882055499  ,-18.241928921684366    ,0.0 ,-81.25649159718142    ,-81.25649159718142      ,        0.0 ,        0.0 , 0.0
 0.0 ,0.0 ,           0.0 ,            0.0 ,            0.0 ,            0.0 ,              0.0 ,                   0.0 ,1319.0 ,48.58244 ,-28.86903 ,           0.0 ,           0.0 ,       0.0 ,-101.8506      ,-18.68397   ,-0.005950052     ,2.195829e-05     ,                 0.0 ,             0.0 ,             0.0 ,                 0.0 ,                 0.0 ,        0.0 ,3.4989671196279053     ,            0.0 ,            0.0 ,            0.0 ,              0.0 ,                   0.0 ,  0.0 ,0.0 ,1221.30971780662     ,1.0                ,0.0 ,-204.30802669117924 ,-410.6410175655651  ,0.21263446461789304     ,-204.26571857374887 ,          0.0 ,          0.0 ,-204.3076271090364  ,-410.64141714770795 ,-204.26571857374887 ,-819.2147628304933  ,119.13897654031611   ,273.0715875413057   ,206.35472132827368   ,-304.98778535496757   ,-511.32077622935344 ,0.21263446461789304     ,-304.9454776522577  ,          0.0 ,          0.0 ,-304.9873857728247   ,-511.3211758114963  ,-304.9454776522577  ,-1121.2538404823085 ,119.13897654031611   ,373.7513466198145    ,206.35472132827368   ,-7.084524994941574e-07  ,-4.312913313267481e-05  ,-2.514236728833581e-06  ,      0.0 ,      0.0 ,      0.0 ,-6.702193214532079e-07  ,-4.316737100364983e-05  ,      0.0 ,-4.383759119366688e-05  ,2.473241626902556e-05  ,0.6384630846488403   ,0.9958290917700631      ,-0.004081777173759465   ,-2.8653315873150486e-05 ,2.3704659633793604e-05 ,-0.29770394822882423   ,0.0 ,-100.37797817382418   ,-100.37797817382418     ,        0.0 ,        0.0 , 0.0
 0.0 ,0.0 ,           0.0 ,            0.0 ,            0.0 ,            0.0 ,              0.0 ,                   0.0 ,1320.0 ,46.74662 ,-29.01457 ,           0.0 ,           0.0 ,       0.0 ,-103.2686      ,-18.68771   ,-0.009761283     ,-0.0001359213    ,                 0.0 ,             0.0 ,             0.0 ,                 0.0 ,                 0.0 ,        0.0 ,2.9980601998474072     ,            0.0 ,            0.0 ,            0.0 ,              0.0 ,                   0.0 ,  0.0 ,0.0 ,1222.6151881626613   ,1.0                ,0.0 ,-204.77713983378544 ,-412.6652711528479  ,0.28946859329069347     ,-204.9374149413257  ,          0.0 ,          0.0 ,-204.7765364795211  ,-412.6659238625261  ,-204.9374149413257  ,-822.3798752833728  ,119.97863820820521   ,274.12660821292894  ,207.80907147799155   ,-306.3764672794755    ,-514.2645985985379  ,0.28946859329069347     ,-306.53679193640966 ,          0.0 ,          0.0 ,-306.3758145697972   ,-514.2652515021962  ,-306.53679193640966 ,-1127.1779531143825 ,119.97863820820521   ,375.725935852599     ,207.80907147799155   ,6.602820134363646e-07   ,-4.830128273306521e-05  ,-2.2569231988049176e-06 ,      0.0 ,      0.0 ,      0.0 ,6.89621510156495e-07    ,-4.833062387954071e-05  ,      0.0 ,-4.76409997913424e-05   ,2.810739263152397e-05  ,0.9960010253873307   ,0.0079055625509513      ,-7.884653473831616e-05  ,-4.3671475345750217e-07 ,0.003046401562959572   ,-100.58140692894747    ,0.0 ,-1.01782346783167     ,-1.01782346783167       ,        0.0 ,        0.0 , 0.0
 0.0 ,0.0 ,           0.0 ,            0.0 ,            0.0 ,            0.0 ,              0.0 ,                   0.0 ,1321.0 ,44.92467 ,-29.18648 ,           0.0 ,           0.0 ,       0.0 ,-104.9502      ,-18.69146   ,-0.01034216      ,-0.0003130084    ,                 0.0 ,             0.0 ,             0.0 ,                 0.0 ,                 0.0 ,        0.0 ,2.982622138329758      ,            0.0 ,            0.0 ,            0.0 ,              0.0 ,                   0.0 ,  0.0 ,0.0 ,1223.4800292307896   ,1.0                ,0.0 ,-205.1302616999001  ,-414.6054874880929  ,0.1746682233052958      ,-205.78911867322898 ,          0.0 ,          0.0 ,-205.13004541410314 ,-414.6057529049967  ,-205.78911867322898 ,-825.5248185936068  ,120.75117155227164   ,275.1749553744786   ,209.1471846458713    ,-308.3828092552493    ,-517.858035043442   ,0.1746682233052958      ,-309.04166782985624 ,          0.0 ,          0.0 ,-308.3825929694524   ,-517.858302061624   ,-309.04166782985624 ,-1135.282618806676  ,120.75117155227164   ,378.42750453110585   ,209.1471846458713    ,7.252458451334077e-07   ,-4.827359035648718e-05  ,-2.0968854210583993e-06 ,      0.0 ,      0.0 ,      0.0 ,7.48804146409369e-07    ,-4.8297148030976286e-05 ,      0.0 ,-4.75483475919658e-05   ,2.8104043487939114e-05 ,0.8239755319507708   ,0.4913951463991998      ,-0.0018174478967035276  ,-6.4351831425008665e-06 ,0.0012810210076995977  ,-56.08916497151845     ,0.0 ,-47.161582121034954   ,-47.161582121034954     ,        0.0 ,        0.0 , 0.0
 0.0 ,0.0 ,           0.0 ,            0.0 ,            0.0 ,            0.0 ,              0.0 ,                   0.0 ,1322.0 ,43.12361 ,-29.39582 ,           0.0 ,           0.0 ,       0.0 ,-107.006       ,-18.69523   ,-0.006964184     ,-0.0004185129    ,                 0.0 ,             0.0 ,             0.0 ,                 0.0 ,                 0.0 ,        0.0 ,3.0153478857663436     ,            0.0 ,            0.0 ,            0.0 ,              0.0 ,                   0.0 ,  0.0 ,0.0 ,1231.369607216276    ,1.0                ,0.0 ,-205.7195825429498  ,-416.80118102347444 ,-0.22095911362362927    ,-206.8138332504762  ,          0.0 ,          0.0 ,-205.71821069269322 ,-416.80255287373103 ,-206.8138332504762  ,-829.3345480533119  ,121.55456439126866   ,276.4448494292734   ,210.53864276579424   ,-311.01407243555997   ,-522.0956709160845  ,-0.22095911362362927    ,-312.1083231430863  ,          0.0 ,          0.0 ,-311.0127005853033   ,-522.0970427663411  ,-312.1083231430863  ,-1145.2182120819712 ,121.55456439126866   ,381.73933932188356   ,210.53864276579424   ,8.945594922446555e-07   ,-4.8367359393542575e-05 ,-2.1904781235544517e-06 ,      0.0 ,      0.0 ,      0.0 ,9.202879348961827e-07   ,-4.8393088464364464e-05 ,      0.0 ,-4.747280227600421e-05  ,2.8209559159806738e-05 ,0.644359466488102    ,1.0                     ,-0.003066933236961686   ,-1.197021485067668e-05  ,0.0                    ,0.003067034074053414   ,0.0 ,-105.29449957497525   ,-105.29449957497525     ,        0.0 ,        0.0 , 0.0
 0.0 ,0.0 ,           0.0 ,            0.0 ,            0.0 ,            0.0 ,              0.0 ,                   0.0 ,1323.0 ,41.34648 ,-29.69216 ,           0.0 ,           0.0 ,       0.0 ,-109.9312      ,-18.69904   ,0.0004113904     ,0.000423393      ,                 0.0 ,             0.0 ,             0.0 ,                 0.0 ,                 0.0 ,        0.0 ,2.959178036910143      ,            0.0 ,            0.0 ,            0.0 ,              0.0 ,                   0.0 ,  0.0 ,0.0 ,1229.3186824068264   ,1.0                ,0.0 ,-207.04547069917442 ,-419.47749010509114 ,-0.8983325909359465     ,-208.17523837728086 ,          0.0 ,          0.0 ,-207.04141789203342 ,-419.48154291223204 ,-208.17523837728086 ,-834.6981991815463  ,122.32635125316388   ,278.2327335696816   ,211.87546186658304   ,-315.26482516988324   ,-527.6968935619007  ,-0.8983325909359465     ,-316.3946418340905  ,          0.0 ,          0.0 ,-315.26082134884314  ,-527.7008973829409  ,-316.3946418340905  ,-1159.356209025076  ,122.32635125316388   ,386.45213702649136   ,211.87546186658304   ,6.346142805628846e-07   ,-4.7669081227386844e-05 ,-2.7779392903167252e-06 ,      0.0 ,      0.0 ,      0.0 ,6.74642513251654e-07    ,-4.770910668838015e-05  ,      0.0 ,-4.703446583865473e-05  ,2.7741677000333232e-05 ,0.8193288689126552   ,0.5083386408550878      ,-0.0012659447014973957  ,-1.0249425938125133e-05 ,0.001800353834593142   ,-50.272780334984766    ,0.0 ,-57.945359560447976   ,-57.945359560447976     ,        0.0 ,        0.0 , 0.0
 0.0 ,0.0 ,           0.0 ,            0.0 ,            0.0 ,            0.0 ,              0.0 ,                   0.0 ,1324.0 ,39.57982 ,-30.24472 ,           0.0 ,           0.0 ,       0.0 ,-115.4168      ,-18.70304   ,0.00625612       ,0.0003138031     ,                 0.0 ,             0.0 ,             0.0 ,                 0.0 ,                 0.0 ,        0.0 ,1.0181626458781736     ,            0.0 ,            0.0 ,            0.0 ,              0.0 ,                   0.0 ,  0.0 ,0.0 ,1232.0916256864787   ,1.0                ,0.0 ,-209.71845192438053 ,-424.88071865967777 ,-1.7510662588369053     ,-210.84474014730222 ,          0.0 ,          0.0 ,-209.70405890351918 ,-424.89511077240695 ,-210.84474014730222 ,-845.4439107313606  ,123.9126644135431    ,281.8146528375258   ,214.62302273303771   ,-323.03912870176356   ,-538.2013954370609  ,-1.7510662588369053     ,-324.1654178328175  ,          0.0 ,          0.0 ,-323.02473568090215  ,-538.2157884579223  ,-324.1654178328175  ,-1185.4059524568493 ,123.9126644135431    ,395.13533052304115   ,214.62302273303771   ,9.350240887688764e-07   ,-5.163385773127871e-05  ,-2.766849308826121e-06  ,      0.0 ,      0.0 ,      0.0 ,9.72339612833333e-07    ,-5.1671174798282105e-05 ,      0.0 ,-5.069883707481996e-05  ,3.011699671404689e-05  ,0.9967774998201234   ,0.006923675088198107    ,-5.4544310307724806e-05 ,-1.206720743352092e-07  ,0.002157649319619549   ,-112.17521017964353    ,0.0 ,-1.1454154565871986   ,-1.1454154565871986     ,        0.0 ,        0.0 , 0.0
 0.0 ,0.0 ,           0.0 ,            0.0 ,            0.0 ,            0.0 ,              0.0 ,                   0.0 ,1325.0 ,37.87897 ,-31.49758 ,           0.0 ,           0.0 ,       0.0 ,-127.9014      ,-18.70743   ,-0.001339614     ,-0.001209524     ,                 0.0 ,             0.0 ,             0.0 ,                 0.0 ,                 0.0 ,        0.0 ,2.379764669528547      ,            0.0 ,            0.0 ,            0.0 ,              0.0 ,                   0.0 ,  0.0 ,0.0 ,1227.3491188887824   ,1.0                ,0.0 ,-214.96412484553815 ,-434.3044936036549  ,-2.373555493911636      ,-215.91172017850522 ,          0.0 ,          0.0 ,-214.93805034132302 ,-434.33054373901587 ,-215.91172017850522 ,-865.1802940083189  ,126.38621715095923   ,288.39343133610635  ,218.9073258929218    ,-341.69089145163      ,-561.0312602097467  ,-2.373555493911636      ,-342.638466534072   ,          0.0 ,          0.0 ,-341.66481694741486  ,-561.0572900945826  ,-342.638466534072   ,-1245.3606447670982 ,126.38621715095923   ,415.12022231105243   ,218.9073258929218    ,2.1836743849101334e-07  ,-4.034946663752244e-05  ,-4.464654941573126e-06  ,      0.0 ,      0.0 ,      0.0 ,3.6044012471372096e-07  ,-4.049153603993079e-05  ,      0.0 ,-4.013109911086094e-05  ,2.348315631517627e-05  ,0.9135273158048189   ,0.24045488065520007     ,-0.001402078431595013   ,-3.238118725431861e-06  ,0.0032336661656502245  ,-95.9892752690866      ,0.0 ,-30.73611901350981    ,-30.73611901350981      ,        0.0 ,        0.0 , 0.0
 0.0 ,0.0 ,           0.0 ,            0.0 ,            0.0 ,            0.0 ,              0.0 ,                   0.0 ,1326.0 ,35.61348 ,-31.65437 ,           0.0 ,           0.0 ,       0.0 ,-129.4153      ,-18.71284   ,-0.0001091939    ,-0.001290999     ,                 0.0 ,             0.0 ,             0.0 ,                 0.0 ,                 0.0 ,        0.0 ,2.7411175666862473     ,            0.0 ,            0.0 ,            0.0 ,              0.0 ,                   0.0 ,  0.0 ,0.0 ,1179.2434441636951   ,1.0                ,0.0 ,-215.8179137085088  ,-435.6689779641926  ,-2.9296510248869128     ,-216.72781787463163 ,          0.0 ,          0.0 ,-215.7774520557588  ,-435.70939440394193 ,-216.72781787463163 ,-868.2146288720903  ,126.70436337400216   ,289.4048612196966   ,219.45836070651836   ,-344.2260788257487    ,-564.0771430814324  ,-2.9296510248869128     ,-345.13592820487213 ,          0.0 ,          0.0 ,-344.1856171729987   ,-564.1175240589398  ,-345.13592820487213 ,-1253.439117294623  ,126.70436337400216   ,417.81304566169376   ,219.45836070651836   ,-2.4619449951688547e-07 ,-3.801969801979804e-05  ,-5.2610739663184735e-06 ,      0.0 ,      0.0 ,      0.0 ,-5.629633496061532e-08  ,-3.820959421251002e-05  ,      0.0 ,-3.826589511735315e-05  ,2.2044127992367343e-05 ,0.839116026289819    ,0.4489886502478723      ,-0.002065975880406066   ,-3.755657378085068e-06  ,0.003141361628954598   ,-76.12803654421506     ,0.0 ,-52.27806835130119    ,-52.27806835130119      ,        0.0 ,        0.0 , 0.0
 0.0 ,0.0 ,           0.0 ,            0.0 ,            0.0 ,            0.0 ,              0.0 ,                   0.0 ,1327.0 ,33.53322 ,-31.79876 ,           0.0 ,           0.0 ,       0.0 ,-130.8066      ,-18.7181    ,0.001363087      ,0.0003938887     ,                 0.0 ,             0.0 ,             0.0 ,                 0.0 ,                 0.0 ,        0.0 ,2.745697843167649      ,            0.0 ,            0.0 ,            0.0 ,              0.0 ,                   0.0 ,  0.0 ,0.0 ,1179.535905565357    ,1.0                ,0.0 ,-216.68547423878425 ,-437.0935984057719  ,-3.3750807671640546     ,-217.53275160994986 ,          0.0 ,          0.0 ,-216.63205688438313 ,-437.1469627423031  ,-217.53275160994986 ,-871.311824254506   ,127.05516968222145   ,290.4372557861117   ,220.0660058996373    ,-346.4316313908422    ,-566.8397301276141  ,-3.3750807671640546     ,-347.2788617798776  ,          0.0 ,          0.0 ,-346.3782140364411   ,-566.8931474820151  ,-347.2788617798776  ,-1260.5504452838534 ,127.05516968222145   ,420.18344440412477   ,220.0660058996373    ,-4.4370795024988533e-07 ,-3.808781499452257e-05  ,-5.611969098785062e-06  ,      0.0 ,      0.0 ,      0.0 ,-2.2894492508607534e-07 ,-3.830257729774115e-05  ,      0.0 ,-3.853152029736099e-05  ,2.2048286511671633e-05 ,0.6442956137633973   ,1.0                     ,-0.005213698440566025   ,-8.91030369082379e-06   ,0.0                    ,0.005213706246621263   ,0.0 ,-129.74614189392852   ,-129.74614189392852     ,        0.0 ,        0.0 , 0.0
 0.0 ,0.0 ,           0.0 ,            0.0 ,            0.0 ,            0.0 ,              0.0 ,                   0.0 ,1328.0 ,31.54508 ,-31.9205  ,           0.0 ,           0.0 ,       0.0 ,-131.9705      ,-18.72344   ,0.002091087      ,-0.0001866894    ,                 0.0 ,             0.0 ,             0.0 ,                 0.0 ,                 0.0 ,        0.0 ,1.5203287572620339     ,            0.0 ,            0.0 ,            0.0 ,              0.0 ,                   0.0 ,  0.0 ,0.0 ,1211.413133013197    ,1.0                ,0.0 ,-217.19348092172177 ,-438.0790625492993  ,-4.055022839351925      ,-218.23486728031622 ,          0.0 ,          0.0 ,-217.1179754834541  ,-438.154567987567   ,-218.23486728031622 ,-873.5074107513374  ,127.29446557281958   ,291.16913703976803  ,220.48045728808947   ,-348.6945265567331    ,-569.5800583682941  ,-4.055022839351925      ,-349.7358129153275  ,          0.0 ,          0.0 ,-348.6190211184654   ,-569.6555638065616  ,-349.7358129153275  ,-1268.0105428501572 ,127.29446557281958   ,422.6701324907959    ,220.48045728808947   ,-2.676965083689983e-07  ,-1.8150652100480114e-05 ,-3.086887143301342e-06  ,      0.0 ,      0.0 ,      0.0 ,-1.3512303033517685e-07 ,-1.82832271525615e-05   ,      0.0 ,-1.841835024122575e-05  ,1.051703538540603e-05  ,0.6445161213049815   ,1.0                     ,-0.004232580202126345   ,-0.0005878929766467746  ,0.0                    ,0.004355300617040224   ,0.0 ,-131.5010451907336    ,-131.5010451907336      ,        0.0 ,        0.0 , 0.0
 0.0 ,0.0 ,           0.0 ,            0.0 ,            0.0 ,            0.0 ,              0.0 ,                   0.0 ,1329.0 ,29.63328 ,-32.01054 ,           0.0 ,           0.0 ,       0.0 ,-132.8159      ,-18.72894   ,0.001784622      ,-0.0003779368    ,                 0.0 ,             0.0 ,             0.0 ,                 0.0 ,                 0.0 ,        0.0 ,0.1042421319498481     ,            0.0 ,            0.0 ,            0.0 ,              0.0 ,                   0.0 ,  0.0 ,0.0 ,1211.8923759334602   ,1.0                ,0.0 ,-217.81967303697616 ,-439.173501332348   ,-4.579831414238587      ,-218.97083556618105 ,          0.0 ,          0.0 ,-217.72492006407973 ,-439.26830088395286 ,-218.97083556618105 ,-875.9640099355051  ,127.55000459005672   ,291.98800103097403  ,220.9231059750943    ,-350.5508921880146    ,-571.9046722742015  ,-4.579831414238587      ,-351.70195992932605 ,          0.0 ,          0.0 ,-350.4561392151181   ,-571.9994252470979  ,-351.70195992932605 ,-1274.1577188587582 ,127.55000459005672   ,424.719173603304     ,220.9231059750943    ,-1.805078647691279e-08  ,-2.208440450007258e-06  ,-2.883436399758151e-07  ,      0.0 ,      0.0 ,      0.0 ,-8.60213369799383e-09   ,-2.2178889568471923e-06 ,      0.0 ,-2.2264915387863534e-06 ,1.2780231316036107e-06 ,0.8101254723934561   ,0.5327201303286425      ,-0.0020594973534958537  ,-0.0005732232033226015  ,0.001596495480966104   ,-66.25473566869145     ,0.0 ,-66.47486946590017    ,-66.47486946590017      ,        0.0 ,        0.0 , 0.0
 0.0 ,0.0 ,           0.0 ,            0.0 ,            0.0 ,            0.0 ,              0.0 ,                   0.0 ,1330.0 ,27.83455 ,-32.05156 ,           0.0 ,           0.0 ,       0.0 ,-133.1708      ,-18.73448   ,0.006660409      ,0.0007142617     ,                 0.0 ,             0.0 ,             0.0 ,                 0.0 ,                 0.0 ,        0.0 ,0.4947504559141123     ,            0.0 ,            0.0 ,            0.0 ,              0.0 ,                   0.0 ,  0.0 ,0.0 ,1212.1336798594734   ,1.0                ,0.0 ,-218.64925671724657 ,-440.0128318942623  ,-4.95803045819051       ,-219.36572287727188 ,          0.0 ,          0.0 ,-218.53779133763936 ,-440.12429592608163 ,-219.36572287727188 ,-878.0278114887808  ,127.69477443736419   ,292.67596889779577  ,221.17381099246194   ,-350.80414503003897   ,-572.167717809358   ,-4.95803045819051       ,-351.52061014015555 ,          0.0 ,          0.0 ,-350.6926796504318   ,-572.2791831889652  ,-351.52061014015555 ,-1274.4926842160066 ,127.69477443736419   ,424.83080908333056   ,221.17381099246194   ,-1.9402841372279784e-07 ,-2.3347674762456252e-05 ,-2.6599209391255713e-06 ,      0.0 ,      0.0 ,      0.0 ,-1.178850322064306e-07  ,-2.3423821805125994e-05 ,      0.0 ,-2.3541705996256648e-05 ,1.348984614093595e-05  ,0.991477861506032    ,0.021356902174321044    ,-0.0006486924339741873  ,-2.8500798334465814e-05 ,0.002727224922454541   ,-129.21314724452344    ,0.0 ,-2.9417198047375566   ,-2.9417198047375566     ,        0.0 ,        0.0 , 0.0
 0.0 ,0.0 ,           0.0 ,            0.0 ,            0.0 ,            0.0 ,              0.0 ,                   0.0 ,1331.0 ,26.30991 ,-32.03693 ,           0.0 ,           0.0 ,       0.0 ,-132.9748      ,-18.73945   ,0.01639304       ,0.0008741117     ,                 0.0 ,             0.0 ,             0.0 ,                 0.0 ,                 0.0 ,        0.0 ,2.1214021177450846     ,            0.0 ,            0.0 ,            0.0 ,              0.0 ,                   0.0 ,  0.0 ,0.0 ,1210.3565831948972   ,1.0                ,0.0 ,-219.79165338727927 ,-440.81553579554327 ,-5.427320066051644      ,-219.9763857923826  ,          0.0 ,          0.0 ,-219.65842916694635 ,-440.9487721751641  ,-219.9763857923826  ,-880.5836123679932  ,127.6704817046888    ,293.5278791941391   ,221.13165913054613   ,-351.22435400839413   ,-572.2482738094461  ,-5.427320066051644      ,-351.40911164699753 ,          0.0 ,          0.0 ,-351.09112978806115  ,-572.3814980297791  ,-351.40911164699753 ,-1274.8819778488546 ,127.6704817046888    ,424.9605798152539    ,221.13165913054613   ,-1.6451581197856681e-06 ,-4.061267015880681e-05  ,-5.8256050224901165e-06 ,      0.0 ,      0.0 ,      0.0 ,-1.4227690723725552e-06 ,-4.0835061297283375e-05 ,      0.0 ,-4.225783031499583e-05  ,2.3189807012006596e-05 ,0.8665912076343228   ,0.3712304303248074      ,-0.0013777196156469298  ,-8.158564140577936e-07  ,0.002697450792256995   ,-79.37512966260003     ,0.0 ,-52.056220207341966   ,-52.056220207341966     ,        0.0 ,        0.0 , 0.0
 0.0 ,0.0 ,           0.0 ,            0.0 ,            0.0 ,            0.0 ,              0.0 ,                   0.0 ,1332.0 ,25.22048 ,-33.37142 ,           0.0 ,           0.0 ,       0.0 ,-146.2573      ,-18.74569   ,0.005893066      ,-6.56038e-05     ,                 0.0 ,             0.0 ,             0.0 ,                 0.0 ,                 0.0 ,        0.0 ,1.8450892958096663     ,            0.0 ,            0.0 ,            0.0 ,              0.0 ,                   0.0 ,  0.0 ,0.0 ,1159.564965373366    ,1.0                ,0.0 ,-224.7905938171591  ,-451.0594288550891  ,-4.737259628968345      ,-225.162916756835   ,          0.0 ,          0.0 ,-224.68932787400428 ,-451.1606743615827  ,-225.162916756835   ,-901.0129565561306  ,130.61689828880426   ,300.3376741006786   ,226.23504793739068   ,-370.0545508163282    ,-596.3234482905495  ,-4.737259628968345      ,-370.42691131971264 ,          0.0 ,          0.0 ,-369.9532848731733   ,-596.4247142337043  ,-370.42691131971264 ,-1336.8048833707016 ,130.61689828880426   ,445.6016310998476    ,226.23504793739068   ,-2.6232200541695335e-07 ,-2.328250494236346e-05  ,-2.8860805712124275e-06 ,      0.0 ,      0.0 ,      0.0 ,-1.7024018390114297e-07 ,-2.3374588756907492e-05 ,      0.0 ,-2.354482874090959e-05  ,1.3446484710936376e-05 ,0.6422522817027467   ,1.0                     ,-0.00339590322701711    ,-0.0009580836503604498  ,0.0                    ,0.003631242627729894   ,0.0 ,-145.263956999169     ,-145.263956999169       ,        0.0 ,        0.0 , 0.0
 0.0 ,0.0 ,           0.0 ,            0.0 ,            0.0 ,            0.0 ,              0.0 ,                   0.0 ,1333.0 ,23.00441 ,-33.68083 ,           0.0 ,           0.0 ,       0.0 ,-149.2541      ,-18.75542   ,0.006266854      ,-0.00145468      ,                 0.0 ,             0.0 ,             0.0 ,                 0.0 ,                 0.0 ,        0.0 ,0.6311577417103463     ,            0.0 ,            0.0 ,            0.0 ,              0.0 ,                   0.0 ,  0.0 ,0.0 ,1142.7900161208106   ,1.0                ,0.0 ,-226.86509884798005 ,-454.2457665283871  ,-4.664252460166951      ,-227.12834838954385 ,          0.0 ,          0.0 ,-226.7669065605467  ,-454.34394009138043 ,-227.12834838954385 ,-908.2391693745768  ,131.2876063188217    ,302.7464020862676   ,227.3967574856623    ,-375.33892311748286   ,-602.7196464065557  ,-4.664252460166951      ,-375.6021913834867  ,          0.0 ,          0.0 ,-375.2407495544895   ,-602.8178386939892  ,-375.6021913834867  ,-1353.6608614721795 ,131.2876063188217    ,451.22024508021036   ,227.3967574856623    ,-7.470169414744239e-07  ,-1.7623979962224937e-05 ,-2.1339956776321544e-06 ,      0.0 ,      0.0 ,      0.0 ,-6.726639509376172e-07  ,-1.769833348712884e-05  ,      0.0 ,-1.8370998679352725e-05 ,1.0029637064843475e-05 ,0.7327095306112182   ,0.7427726393556031      ,-0.0029305081917768657  ,-0.001174232864682725   ,0.0005584202401767989  ,-46.07504094545255     ,0.0 ,-102.3955824699216    ,-102.3955824699216      ,        0.0 ,        0.0 , 0.0
 0.0 ,0.0 ,           0.0 ,            0.0 ,            0.0 ,            0.0 ,              0.0 ,                   0.0 ,1334.0 ,98.3014  ,-32.77728 ,           0.0 ,           0.0 ,       0.0 ,-141.7072      ,-18.60656   ,0.009874028      ,0.003130637      ,                 0.0 ,             0.0 ,             0.0 ,                 0.0 ,                 0.0 ,        0.0 ,3.30743085157596       ,            0.0 ,            0.0 ,            0.0 ,              0.0 ,                   0.0 ,  0.0 ,0.0 ,1211.0018426689307   ,1.0                ,0.0 ,-223.62324370057297 ,-443.48677021134847 ,-3.6691735005642023     ,-222.4065143060362  ,          0.0 ,          0.0 ,-223.5610499378517  ,-443.54893341525155 ,-222.4065143060362  ,-889.5165282179577  ,127.34495237110784   ,296.5055210102273   ,220.5678934922783    ,-364.1440338099468    ,-584.0075603207223  ,-3.6691735005642023     ,-362.92733497422824 ,          0.0 ,          0.0 ,-364.08184004722546  ,-584.0697540834435  ,-362.92733497422824 ,-1311.0790720569    ,127.34495237110784   ,437.02631111960113   ,220.5678934922783    ,-3.9243497725818926e-06 ,-3.293644851283746e-05  ,-2.9661597905311364e-06 ,      0.0 ,      0.0 ,      0.0 ,-3.831008043233842e-06  ,-3.302979040681375e-05  ,      0.0 ,-3.686079807227997e-05  ,1.807168819672523e-05  ,0.6355165388512531   ,1.0                     ,-0.0014960393068415806  ,-0.002128292984435782   ,0.0                    ,0.00261210107374092    ,0.0 ,-140.52079010937382   ,-140.52079010937382     ,        0.0 ,        0.0 , 0.0
 0.0 ,0.0 ,           0.0 ,            0.0 ,            0.0 ,            0.0 ,              0.0 ,                   0.0 ,1335.0 ,69.70223 ,-33.19206 ,           0.0 ,           0.0 ,       0.0 ,-145.494       ,-18.64265   ,0.044343         ,0.0234973        ,                 0.0 ,             0.0 ,             0.0 ,                 0.0 ,                 0.0 ,        0.0 ,3.090861562895771      ,            0.0 ,            0.0 ,            0.0 ,              0.0 ,                   0.0 ,  0.0 ,0.0 ,1228.1470752830976   ,1.0                ,0.0 ,-233.8112567939707  ,-453.233410795119   ,-6.407310751249797      ,-228.01098219291674 ,          0.0 ,          0.0 ,-233.5898786763393  ,-453.45479232525383 ,-228.01098219291674 ,-915.0556497820064  ,128.58101878054893   ,305.0185468986167   ,222.70885609205254   ,-377.84922116345285   ,-597.2713876632608  ,-6.407310751249797      ,-372.04895906105867 ,          0.0 ,          0.0 ,-377.6278555444812   ,-597.492756694736   ,-372.04895906105867 ,-1347.1694565404666 ,128.58101878054893   ,449.05652376675863   ,222.70885609205254   ,-3.6305546931438816e-06 ,-4.3209589154707075e-05 ,-4.0550005448663245e-06 ,      0.0 ,      0.0 ,      0.0 ,-3.52039730946321e-06   ,-4.331974862951073e-05  ,      0.0 ,-4.6840143427406784e-05 ,2.40595086880403e-05   ,0.7872824187046694   ,0.5785313633781962      ,-0.0019637330772001426  ,-3.022115887928575e-05  ,0.0010245152631528601  ,-64.55603251579413     ,0.0 ,-79.4799917023332     ,-79.4799917023332       ,        0.0 ,        0.0 , 0.0
 0.0 ,0.0 ,           0.0 ,            0.0 ,            0.0 ,            0.0 ,              0.0 ,                   0.0 ,1336.0 ,71.71482 ,-33.17987 ,           0.0 ,           0.0 ,       0.0 ,-145.4102      ,-18.63885   ,0.06661          ,-0.02949864      ,                 0.0 ,             0.0 ,             0.0 ,                 0.0 ,                 0.0 ,        0.0 ,1.5055992055631573     ,            0.0 ,            0.0 ,            0.0 ,              0.0 ,                   0.0 ,  0.0 ,0.0 ,1215.124676113193    ,1.0                ,0.0 ,-235.06194539214084 ,-458.2049649767201  ,-10.967341303846913     ,-230.36052892502607 ,          0.0 ,          0.0 ,-234.47308951187026 ,-458.79386120247983 ,-230.36052892502607 ,-923.6274392938869  ,130.7209506921241    ,307.8758309048641   ,226.4153313936546    ,-380.18000581106804   ,-603.3230253956474  ,-10.967341303846913     ,-375.4785893439533  ,          0.0 ,          0.0 ,-379.5911732204449   ,-603.911921621407   ,-375.4785893439533  ,-1358.9817415871362 ,130.7209506921241    ,452.9939146134387    ,226.4153313936546    ,-2.167910314871845e-06  ,-2.040298867782432e-05  ,-2.9746976870466104e-06 ,      0.0 ,      0.0 ,      0.0 ,-2.03058410933283e-06   ,-2.0540318639133474e-05 ,      0.0 ,-2.257089922559264e-05  ,1.1319823323229888e-05 ,0.7215992988075084   ,0.7657970416503806      ,-0.0021580941242542386  ,-7.370584747896198e-05  ,0.001306618855791581   ,-35.85164202743359     ,0.0 ,-109.26427705048228   ,-109.26427705048228     ,        0.0 ,        0.0 , 0.0
 0.0 ,0.0 ,           0.0 ,            0.0 ,            0.0 ,            0.0 ,              0.0 ,                   0.0 ,1337.0 ,39.66527 ,-32.48399 ,           0.0 ,           0.0 ,       0.0 ,-137.8021      ,-18.70378   ,-0.01067157      ,-0.0005978748    ,                 0.0 ,             0.0 ,             0.0 ,                 0.0 ,                 0.0 ,        0.0 ,0.5334652499714319     ,            0.0 ,            0.0 ,            0.0 ,              0.0 ,                   0.0 ,  0.0 ,0.0 ,1247.5523454911572   ,1.0                ,0.0 ,-218.07256622601543 ,-441.1591992995616  ,-1.3157725829159825     ,-219.29375084443694 ,          0.0 ,          0.0 ,-218.06471454639814 ,-441.16710119649315 ,-219.29375084443694 ,-878.525516370014   ,128.45496490784896   ,292.8418227173112   ,222.4905118828528    ,-354.7996523750146    ,-577.8863336666409  ,-1.3157725829159825     ,-356.0208859938191  ,          0.0 ,          0.0 ,-354.7918489134776   ,-577.8941881277949  ,-356.0208859938191  ,-1288.7065768162452 ,128.45496490784896   ,429.5689578666934    ,222.4905118828528    ,2.503098420836241e-07   ,-2.5376163987459258e-05 ,-1.3986461874195282e-06 ,      0.0 ,      0.0 ,      0.0 ,2.697200285853347e-07   ,-2.53955698697315e-05   ,      0.0 ,-2.512584956893742e-05  ,1.4740623209457448e-05 ,0.8173995596938739   ,0.5167462253044897      ,-0.0013183823689610027  ,-1.0335484475679068e-06 ,0.0010853282334684412  ,-63.86923740401401     ,0.0 ,-72.856694453722      ,-72.856694453722        ,        0.0 ,        0.0 , 0.0
 0.0 ,0.0 ,           0.0 ,            0.0 ,            0.0 ,            0.0 ,              0.0 ,                   0.0 ,1338.0 ,41.46804 ,-32.76739 ,           0.0 ,           0.0 ,       0.0 ,-140.6758      ,-18.69981   ,-0.009793336     ,0.0002335543     ,                 0.0 ,             0.0 ,             0.0 ,                 0.0 ,                 0.0 ,        0.0 ,0.4862258145480529     ,            0.0 ,            0.0 ,            0.0 ,              0.0 ,                   0.0 ,  0.0 ,0.0 ,1249.5510954075135   ,1.0                ,0.0 ,-219.54764815808926 ,-443.6742420393606  ,-0.8281631580254216     ,-220.58408849362235 ,          0.0 ,          0.0 ,-219.5429529230263  ,-443.6788941359184  ,-220.58408849362235 ,-883.8059328105289  ,129.10565003346824   ,294.60196139171615  ,223.61755552006957   ,-359.20335013253066   ,-583.3299953912206  ,-0.8281631580254216     ,-360.23984184548226 ,          0.0 ,          0.0 ,-359.1987062748862   ,-583.3346419909033  ,-360.23984184548226 ,-1302.772838721054  ,129.10565003346824   ,434.2577147435761    ,223.61755552006957   ,9.08480012291886e-08    ,-2.3738328800776667e-05 ,-1.0400949622233272e-06 ,      0.0 ,      0.0 ,      0.0 ,1.0219887115069068e-07  ,-2.37496778683809e-05   ,      0.0 ,-2.3647479286763376e-05 ,1.3741485080876938e-05 ,1.0                  ,-0.0022012204210492014  ,-0.00017534368059949883 ,0.0                     ,0.0022143878845514078  ,-139.65570197444134    ,0.0 ,0.0                   ,0.0                     ,        0.0 ,        0.0 , 0.0
 0.0 ,0.0 ,           0.0 ,            0.0 ,            0.0 ,            0.0 ,              0.0 ,                   0.0 ,1339.0 ,43.26439 ,-32.7917  ,           0.0 ,           0.0 ,       0.0 ,-140.9584      ,-18.69586   ,-0.006694251     ,-0.0002305182    ,                 0.0 ,             0.0 ,             0.0 ,                 0.0 ,                 0.0 ,        0.0 ,1.5303262263378097     ,            0.0 ,            0.0 ,            0.0 ,              0.0 ,                   0.0 ,  0.0 ,0.0 ,1247.8167118268384   ,1.0                ,0.0 ,-219.43319343411338 ,-442.5683294522146  ,-0.39395072148114535    ,-220.22851897429632 ,          0.0 ,          0.0 ,-219.43192088456055 ,-442.5696015719302  ,-220.22851897429632 ,-882.230041430787   ,128.5992229973965    ,294.07671366698327  ,222.74045189449046   ,-360.0844183906431    ,-583.2194548385814  ,-0.39395072148114535    ,-360.8796443606633  ,          0.0 ,          0.0 ,-360.0831458410903   ,-583.2207273881343  ,-360.8796443606633  ,-1304.183459367536  ,128.5992229973965    ,434.72783905335024   ,222.74045189449046   ,-8.038379203487714e-08  ,-1.7261332011445713e-05 ,-2.1829610271582167e-06 ,      0.0 ,      0.0 ,      0.0 ,-1.0953810505501587e-08 ,-1.7330763578110844e-05 ,      0.0 ,-1.7341715688420446e-05 ,1.0002758573865708e-05 ,0.818967875224923    ,0.5076063927403663      ,-0.0030070301396510997  ,-8.13188196805393e-06   ,0.001073716335838549   ,-73.44962665884647     ,0.0 ,-67.19858568277648    ,-67.19858568277648      ,        0.0 ,        0.0 , 0.0
 0.0 ,0.0 ,           0.0 ,            0.0 ,            0.0 ,            0.0 ,              0.0 ,                   0.0 ,1340.0 ,45.08316 ,-32.73279 ,           0.0 ,           0.0 ,       0.0 ,-140.4086      ,-18.69193   ,-0.00544817      ,-0.0001184401    ,                 0.0 ,             0.0 ,             0.0 ,                 0.0 ,                 0.0 ,        0.0 ,2.9913571848674474     ,            0.0 ,            0.0 ,            0.0 ,              0.0 ,                   0.0 ,  0.0 ,0.0 ,1247.7200417530485   ,0.9999999999999999 ,0.0 ,-219.6436414460944  ,-442.7598553494758  ,-0.23420987540134358    ,-220.01835959052892 ,          0.0 ,          0.0 ,-219.64333865091902 ,-442.7601581446512  ,-220.01835959052892 ,-882.4218563860991  ,128.70843574936998   ,294.14063531798615  ,222.92956052268036   ,-358.36169330536495   ,-581.4779082753587  ,-0.23420987540134358    ,-358.73641165213036 ,          0.0 ,          0.0 ,-358.36139157680196  ,-581.4782604360626  ,-358.73641165213036 ,-1298.5763132328539 ,128.70843574936998   ,432.8586882438691    ,222.92956052268036   ,-2.7750162589063537e-08 ,-4.5718601970279645e-05 ,-3.4468869339827114e-06 ,      0.0 ,      0.0 ,      0.0 ,3.721810267414258e-08   ,-4.5783568624031255e-05 ,      0.0 ,-4.574635044571004e-05  ,2.6443914204393412e-05 ,0.8196557390023045   ,0.5051182956404124      ,-0.001860136599022136   ,-4.669990643459178e-06  ,0.0012264278080108993  ,-72.61518191055603     ,0.0 ,-66.10106446272529    ,-66.10106446272529      ,        0.0 ,        0.0 , 0.0
 0.0 ,0.0 ,           0.0 ,            0.0 ,            0.0 ,            0.0 ,              0.0 ,                   0.0 ,1341.0 ,46.9245  ,-32.65016 ,           0.0 ,           0.0 ,       0.0 ,-139.6215      ,-18.68801   ,-0.004686793     ,-6.031446e-06    ,                 0.0 ,             0.0 ,             0.0 ,                 0.0 ,                 0.0 ,        0.0 ,3.994945797725624      ,            0.0 ,            0.0 ,            0.0 ,              0.0 ,                   0.0 ,  0.0 ,0.0 ,1247.6615285207718   ,1.0                ,0.0 ,-219.34482272313298 ,-441.9968579285427  ,-0.10174240968959405    ,-219.57346339148418 ,          0.0 ,          0.0 ,-219.34477247870484 ,-441.99690817297085 ,-219.57346339148418 ,-880.9151440431599  ,128.48233376593575   ,293.63839801162595  ,222.5379156045185    ,-357.021378317177     ,-579.6734630254484  ,-0.10174240968959405    ,-357.2501187328181  ,          0.0 ,          0.0 ,-357.02132807274893  ,-579.6735132698766  ,-357.2501187328181  ,-1293.9449115337302 ,128.48233376593575   ,431.31495360567      ,222.5379156045185    ,1.7300629067961106e-07  ,-4.932353358289133e-05  ,-3.4313451719539126e-06 ,      0.0 ,      0.0 ,      0.0 ,2.324603439152821e-07   ,-4.938298976724491e-05  ,      0.0 ,-4.915053107908311e-05  ,2.8579015057941166e-05 ,0.643870044149415    ,1.0                     ,-0.0024867037330034204  ,-1.0307033567895811e-05 ,0.0                    ,0.0024867252452248274  ,0.0 ,-137.676555594044     ,-137.676555594044       ,        0.0 ,        0.0 , 0.0
 0.0 ,0.0 ,           0.0 ,            0.0 ,            0.0 ,            0.0 ,              0.0 ,                   0.0 ,1342.0 ,48.78638 ,-32.56474 ,           0.0 ,           0.0 ,       0.0 ,-138.8062      ,-18.68411   ,-0.003309711     ,-8.78227e-05     ,                 0.0 ,             0.0 ,             0.0 ,                 0.0 ,                 0.0 ,        0.0 ,3.2556766843685465     ,            0.0 ,            0.0 ,            0.0 ,              0.0 ,                   0.0 ,  0.0 ,0.0 ,1246.4564784636768   ,1.0                ,0.0 ,-218.85659752608714 ,-440.6078426264818  ,0.016594873008883806    ,-219.01466940723108 ,          0.0 ,          0.0 ,-218.85654685029553 ,-440.60789330227345 ,-219.01466940723108 ,-878.4791095598     ,127.98259171947761   ,292.82635322489546  ,221.672347842458     ,-356.28545593895245   ,-578.0367258163376  ,0.016594873008883806    ,-356.44355259708686 ,          0.0 ,          0.0 ,-356.28537992526503  ,-578.0367764921292  ,-356.44355259708686 ,-1290.7652844672634 ,127.98259171947761   ,430.25518629986493   ,221.672347842458     ,6.155351009332003e-07   ,-4.370984486628043e-05  ,-3.765619362354196e-06  ,      0.0 ,      0.0 ,      0.0 ,7.000866627446023e-07   ,-4.3794396992621435e-05 ,      0.0 ,-4.3094314801883025e-05 ,2.5490644185216612e-05 ,0.7339062452943773   ,0.7451769287861572      ,-0.0021505476347365576  ,-7.822409799784815e-06  ,0.0014441313447299466  ,-32.44830257633934     ,0.0 ,-104.97838720634817   ,-104.97838720634817     ,        0.0 ,        0.0 , 0.0
 0.0 ,0.0 ,           0.0 ,            0.0 ,            0.0 ,            0.0 ,              0.0 ,                   0.0 ,1343.0 ,50.66351 ,-32.48348 ,           0.0 ,           0.0 ,       0.0 ,-138.0324      ,-18.68023   ,-0.001651503     ,0.0003850466     ,                 0.0 ,             0.0 ,             0.0 ,                 0.0 ,                 0.0 ,        0.0 ,3.501202943933067      ,            0.0 ,            0.0 ,            0.0 ,              0.0 ,                   0.0 ,  0.0 ,0.0 ,1246.4728636110797   ,1.0                ,0.0 ,-218.41610408201407 ,-439.5374001561114  ,0.15348310189635236     ,-218.56190302508324 ,          0.0 ,          0.0 ,-218.41595342740996 ,-439.53757625831196 ,-218.56190302508324 ,-876.5154072632087  ,127.62251680816004   ,292.17178579450103  ,221.04872297191815   ,-355.3507563712521    ,-576.4720272383418  ,0.15348310189635236     ,-355.49653010731356 ,          0.0 ,          0.0 ,-355.35055583694236  ,-576.4722033405423  ,-355.49653010731356 ,-1287.3189147323947 ,127.62251680816004   ,429.10638820403346   ,221.04872297191815   ,1.1145546706795273e-06  ,-4.12550906641688e-05   ,-3.7455116893174094e-06 ,      0.0 ,      0.0 ,      0.0 ,1.2073176799462598e-06  ,-4.13478519752966e-05   ,      0.0 ,-4.01405395551694e-05   ,2.422964227430726e-05  ,0.9122664274142479   ,0.2432542407195322      ,-0.0006296588953791989  ,-2.4006924923973805e-06 ,0.0034727817163704355  ,-100.7988007972012     ,0.0 ,-36.13518929394918    ,-36.13518929394918      ,        0.0 ,        0.0 , 0.0
 0.0 ,0.0 ,           0.0 ,            0.0 ,            0.0 ,            0.0 ,              0.0 ,                   0.0 ,1344.0 ,52.55213 ,-32.40302 ,           0.0 ,           0.0 ,       0.0 ,-137.2665      ,-18.67637   ,0.0001222459     ,-0.001420207     ,                 0.0 ,             0.0 ,             0.0 ,                 0.0 ,                 0.0 ,        0.0 ,2.4848954878304093     ,            0.0 ,            0.0 ,            0.0 ,              0.0 ,                   0.0 ,  0.0 ,0.0 ,1246.0223942584935   ,1.0                ,0.0 ,-218.0129368803774  ,-439.21473749348934 ,0.27181182590656877     ,-218.22293923653731 ,          0.0 ,          0.0 ,-218.01258536992617 ,-439.2151375568784  ,-218.22293923653731 ,-875.4506150257716  ,127.65068722239816   ,291.8168888242779   ,221.09747528534123   ,-353.2942724733263    ,-574.4960730864382  ,0.27181182590656877     ,-353.5042748294862  ,          0.0 ,          0.0 ,-353.2939209628751   ,-574.4964731498274  ,-353.5042748294862  ,-1281.2946677169884 ,127.65068722239816   ,427.09822300185925   ,221.09747528534123   ,1.700460774519132e-06   ,-5.1118931153940406e-05 ,-2.3823941235009317e-06 ,      0.0 ,      0.0 ,      0.0 ,1.730383451264255e-06   ,-5.1148846945182714e-05 ,      0.0 ,-4.9418466407094736e-05 ,3.0043005152440696e-05 ,0.8163348744535942   ,0.5132688276992834      ,-0.0011706194630166976  ,-5.774423459440478e-06  ,0.0012018070804414496  ,-70.43696123429726     ,0.0 ,-64.84320809891892    ,-64.84320809891892      ,        0.0 ,        0.0 , 0.0
 0.0 ,0.0 ,           0.0 ,            0.0 ,            0.0 ,            0.0 ,              0.0 ,                   0.0 ,1345.0 ,54.45288 ,-32.3041  ,           0.0 ,           0.0 ,       0.0 ,-136.3158      ,-18.67252   ,-0.004609093     ,-1.677976e-05    ,                 0.0 ,             0.0 ,             0.0 ,                 0.0 ,                 0.0 ,        0.0 ,2.2959948701051465     ,            0.0 ,            0.0 ,            0.0 ,              0.0 ,                   0.0 ,  0.0 ,0.0 ,1247.1768063655654   ,1.0                ,0.0 ,-217.86590531425315 ,-437.6549911964504  ,0.4769344945183609      ,-217.95349765032717 ,          0.0 ,          0.0 ,-217.86419249050817 ,-437.6567040201953  ,-217.95349765032717 ,-873.4744575724883  ,126.87149816839738   ,291.15818022216763  ,219.7478540669639    ,-353.28190126535856   ,-573.0709871475558  ,0.4769344945183609      ,-353.3694936014326  ,          0.0 ,          0.0 ,-353.2801884416136   ,-573.0726999713008  ,-353.3694936014326  ,-1279.7221763099005 ,126.87149816839738   ,426.57412966780083   ,219.7478540669639    ,1.1124963469017746e-06  ,-3.8623756792008034e-05 ,-4.075373937261793e-06  ,      0.0 ,      0.0 ,      0.0 ,1.2305438538128125e-06  ,-3.874180314880212e-05  ,      0.0 ,-3.751126291595776e-05  ,2.274211549467526e-05  ,0.7729931002996873   ,0.6327779565823033      ,-0.0030172126118105666  ,-1.2380697092563046e-05 ,0.0013366255597303126  ,-45.155078676779254    ,0.0 ,-90.25784112487088    ,-90.25784112487088      ,        0.0 ,        0.0 , 0.0
 0.0 ,0.0 ,           0.0 ,            0.0 ,            0.0 ,            0.0 ,              0.0 ,                   0.0 ,1346.0 ,57.65264 ,-32.5508  ,           0.0 ,           0.0 ,       0.0 ,-138.8468      ,-18.66613   ,0.01805139       ,0.0018448        ,                 0.0 ,             0.0 ,             0.0 ,                 0.0 ,                 0.0 ,        0.0 ,1.6003019284331435     ,            0.0 ,            0.0 ,            0.0 ,              0.0 ,                   0.0 ,  0.0 ,0.0 ,1247.0451389472917   ,1.0                ,0.0 ,-218.50623229852778 ,-439.6095150797084  ,1.0623469626069548      ,-218.93324238803135 ,          0.0 ,          0.0 ,-218.4992713912136  ,-439.616519249135   ,-218.93324238803135 ,-877.0490027845246  ,127.5371986137707    ,292.3496820155457   ,220.90091430990623   ,-356.716273686829     ,-577.819513205897   ,1.0623469626069548      ,-357.1432405142201  ,          0.0 ,          0.0 ,-356.7092695174024   ,-577.8265173753238  ,-357.1432405142201  ,-1291.678919449782  ,127.5371986137707    ,430.5596801417345    ,220.90091430990623   ,2.519724312959181e-06   ,-2.8516276545868924e-05 ,-2.1214525779560513e-06 ,      0.0 ,      0.0 ,      0.0 ,2.589859638470735e-06   ,-2.8586411741197906e-05 ,      0.0 ,-2.5996555173148457e-05 ,1.7325616217255727e-05 ,0.9045450224898488   ,0.26183050936737085     ,-0.0005447455105183291  ,-1.7399719816417162e-05 ,0.003109847749518195   ,-100.79761607149709    ,0.0 ,-37.411851879964935   ,-37.411851879964935     ,        0.0 ,        0.0 , 0.0
 0.0 ,0.0 ,           0.0 ,            0.0 ,            0.0 ,            0.0 ,              0.0 ,                   0.0 ,1347.0 ,59.12634 ,-31.67103 ,           0.0 ,           0.0 ,       0.0 ,-130.0789      ,-18.66314   ,-0.01100567      ,-0.0009398474    ,                 0.0 ,             0.0 ,             0.0 ,                 0.0 ,                 0.0 ,        0.0 ,2.9927126687167678     ,            0.0 ,            0.0 ,            0.0 ,              0.0 ,                   0.0 ,  0.0 ,0.0 ,1244.420907591702    ,1.0                ,0.0 ,-214.86028787583808 ,-433.0940101214701  ,2.0392203885938156      ,-215.46539729188478 ,          0.0 ,          0.0 ,-214.83587252541594 ,-433.11845739121804 ,-215.46539729188478 ,-863.4197042720496  ,125.8441886767628    ,287.8065636823901   ,217.96853869163627   ,-343.6046303595883    ,-561.8383206858946  ,2.0392203885938156      ,-344.2097078563092  ,          0.0 ,          0.0 ,-343.5801830898404   ,-561.8627679556425  ,-344.2097078563092  ,-1249.6523504177467 ,125.8441886767628    ,416.55087424681454   ,217.96853869163627   ,3.2159220001715404e-06  ,-4.504412858826055e-05  ,-2.0778167524524054e-06 ,      0.0 ,      0.0 ,      0.0 ,3.270282793639777e-06   ,-4.509848974334227e-05  ,      0.0 ,-4.18282078794367e-05   ,2.705224286566619e-05  ,0.8384238789207688   ,0.44913414857310036     ,-0.0011212186558926874  ,-8.895805563067995e-06  ,0.0023079289728300113  ,-75.16533541827647     ,0.0 ,-53.5778649264493     ,-53.5778649264493       ,        0.0 ,        0.0 , 0.0
 0.0 ,0.0 ,           0.0 ,            0.0 ,            0.0 ,            0.0 ,              0.0 ,                   0.0 ,1348.0 ,61.35103 ,-31.8869  ,           0.0 ,           0.0 ,       0.0 ,-132.2815      ,-18.65876   ,-0.02013981      ,-0.002188175     ,                 0.0 ,             0.0 ,             0.0 ,                 0.0 ,                 0.0 ,        0.0 ,2.8890250140706057     ,            0.0 ,            0.0 ,            0.0 ,              0.0 ,                   0.0 ,  0.0 ,0.0 ,1205.6624554001296   ,1.0                ,0.0 ,-217.10244455497804 ,-435.5904852963272  ,2.5332433658257654      ,-217.148763723988   ,          0.0 ,          0.0 ,-217.06311170937948 ,-435.62981814192574 ,-217.148763723988   ,-869.8416738231572  ,126.16515590553955   ,289.94721308265815  ,218.52447855487895   ,-347.6513454680755    ,-566.1393602888795  ,2.5332433658257654      ,-347.69766463708544 ,          0.0 ,          0.0 ,-347.6119928703409   ,-566.1786931344781  ,-347.69766463708544 ,-1261.4879494025847 ,126.16515590553955   ,420.4960880752104    ,218.52447855487895   ,3.566859511943303e-07   ,-4.8375565999546815e-05 ,-1.1000058831755936e-06 ,      0.0 ,      0.0 ,      0.0 ,3.7147289824275753e-07  ,-4.839035427995388e-05  ,      0.0 ,-4.801887667817205e-05  ,2.8084954339584847e-05 ,0.8055564959024608   ,0.5419033056905029      ,-0.001342205091048009   ,-1.0705366572113244e-05 ,0.0013698972732743753  ,-66.07100781895355     ,0.0 ,-64.47653111597408    ,-64.47653111597408      ,        0.0 ,        0.0 , 0.0
 0.0 ,0.0 ,           0.0 ,            0.0 ,            0.0 ,            0.0 ,              0.0 ,                   0.0 ,1349.0 ,63.43603 ,-32.12885 ,           0.0 ,           0.0 ,       0.0 ,-134.7417      ,-18.65468   ,-0.009900353     ,0.003012078      ,                 0.0 ,             0.0 ,             0.0 ,                 0.0 ,                 0.0 ,        0.0 ,1.5134300833346317     ,            0.0 ,            0.0 ,            0.0 ,              0.0 ,                   0.0 ,  0.0 ,0.0 ,1205.5939898931056   ,1.0                ,0.0 ,-219.32239206839148 ,-436.91813147554177 ,3.1590702862893156      ,-218.56027704195077 ,          0.0 ,          0.0 ,-219.260875599388   ,-436.9796479445452  ,-218.56027704195077 ,-874.8007573511678  ,125.90341854490934   ,291.60026686196136  ,218.07107378709162   ,-352.57334431466796   ,-570.1690580503141  ,3.1590702862893156      ,-351.8112036167231  ,          0.0 ,          0.0 ,-352.5117433925543   ,-570.2306001908216  ,-351.8112036167231  ,-1274.5535114039808 ,125.90341854490934   ,424.85121910823784   ,218.07107378709162   ,-2.660769111530877e-06  ,-4.399491311431171e-05  ,-6.399365112437246e-07  ,      0.0 ,      0.0 ,      0.0 ,-2.5739864578513746e-06 ,-4.408169807223206e-05  ,      0.0 ,-4.665567990143851e-05  ,2.47481685470084e-05   ,0.9432881795933166   ,0.1527505221939909      ,-0.0003511829989744528  ,-2.609848625075047e-06  ,0.0027184261983015075  ,-113.63746963631898    ,0.0 ,-19.613147791982318   ,-19.613147791982318     ,        0.0 ,        0.0 , 0.0
 0.0 ,0.0 ,           0.0 ,            0.0 ,            0.0 ,            0.0 ,              0.0 ,                   0.0 ,1350.0 ,65.25501 ,-32.37582 ,           0.0 ,           0.0 ,       0.0 ,-137.2468      ,-18.65115   ,-0.003685955     ,0.001216431      ,                 0.0 ,             0.0 ,             0.0 ,                 0.0 ,                 0.0 ,        0.0 ,2.2045334286107923     ,            0.0 ,            0.0 ,            0.0 ,              0.0 ,                   0.0 ,  0.0 ,0.0 ,1222.318927818309    ,1.0                ,0.0 ,-222.1735372646255  ,-438.83868770567085 ,2.7689675190851215      ,-219.94749954794358 ,          0.0 ,          0.0 ,-222.11988079519352 ,-438.89234417510283 ,-219.94749954794358 ,-880.9597799204273  ,125.7858751645502    ,293.6532310868407   ,217.8674846725467    ,-357.71865765174095   ,-574.3838260104089  ,2.7689675190851215      ,-355.4926378526816  ,          0.0 ,          0.0 ,-357.66501909993156  ,-574.4374645622183  ,-355.4926378526816  ,-1287.595056463676  ,125.7858751645502    ,429.19838273167386   ,217.8674846725467    ,-4.01918517936892e-06   ,-4.522170862499296e-05  ,-4.068834600078067e-07  ,      0.0 ,      0.0 ,      0.0 ,-3.958518526859142e-06  ,-4.52823760476121e-05   ,      0.0 ,-4.924089365054286e-05  ,2.5079654982972744e-05 ,0.6837454393148956   ,0.8658450422522026      ,-0.0019620873176529902  ,-1.6706703639648848e-05 ,0.0007540180563105054  ,-21.897622101659714    ,0.0 ,-113.64557138972927   ,-113.64557138972927     ,        0.0 ,        0.0 , 0.0
 0.0 ,0.0 ,           0.0 ,            0.0 ,            0.0 ,            0.0 ,              0.0 ,                   0.0 ,1351.0 ,67.00275 ,-31.12688 ,           0.0 ,           0.0 ,       0.0 ,-124.7923      ,-18.64765   ,-0.07840645      ,-0.002585981     ,                 0.0 ,             0.0 ,             0.0 ,                 0.0 ,                 0.0 ,        0.0 ,3.248489021802329      ,            0.0 ,            0.0 ,            0.0 ,              0.0 ,                   0.0 ,  0.0 ,0.0 ,1179.0243603813205   ,1.0                ,0.0 ,-218.0091106932092  ,-427.78472351657456 ,2.36275393568564        ,-214.71914355314132 ,          0.0 ,          0.0 ,-217.89538096339942 ,-427.898448447082   ,-214.71914355314132 ,-860.5129729636227  ,122.17491532366276   ,286.83762592097503  ,211.6131646768056    ,-341.2597103109543    ,-551.035390358073   ,2.36275393568564        ,-337.9698103946398  ,          0.0 ,          0.0 ,-341.1460526042002   ,-551.1490528641293  ,-337.9698103946398  ,-1230.2645935041965 ,122.17491532366276   ,410.08829276247343   ,211.6131646768056    ,-3.900839929619732e-06  ,-4.3428737493071615e-05 ,-9.192369032090727e-07  ,      0.0 ,      0.0 ,      0.0 ,-3.875802053188403e-06  ,-4.345377458456676e-05  ,      0.0 ,-4.732957742269135e-05  ,2.4047925827479502e-05 ,0.7365615455732742   ,0.7192051122519932      ,-0.0017500332794001398  ,-2.3355366726494904e-05 ,0.0010255195158496457  ,-23.661158799742115    ,0.0 ,-99.58776728743973    ,-99.58776728743973      ,        0.0 ,        0.0 , 0.0
 0.0 ,0.0 ,           0.0 ,            0.0 ,            0.0 ,            0.0 ,              0.0 ,                   0.0 ,1352.0 ,57.44828 ,-30.65108 ,           0.0 ,           0.0 ,       0.0 ,-119.8468      ,-18.6664    ,-0.008342524     ,0.001224287      ,                 0.0 ,             0.0 ,             0.0 ,                 0.0 ,                 0.0 ,        0.0 ,1.5342817802801638     ,            0.0 ,            0.0 ,            0.0 ,              0.0 ,                   0.0 ,  0.0 ,0.0 ,1250.5838946855436   ,1.0                ,0.0 ,-211.02424213661553 ,-425.4813524938422  ,1.5342415586774114      ,-211.52407936510724 ,          0.0 ,          0.0 ,-211.01189693762913 ,-425.4936835077214  ,-211.52407936510724 ,-848.029627423743   ,123.683520462053     ,282.6765602839737   ,214.22615812153254   ,-329.24287212958075   ,-543.7000217298782  ,1.5342415586774114      ,-329.74270935807243 ,          0.0 ,          0.0 ,-329.23052693059435  ,-543.7123527437574  ,-329.74270935807243 ,-1202.6851566457092 ,123.683520462053     ,400.8951902769389    ,214.22615812153254   ,1.5842934019619684e-06  ,-4.689449376087404e-05  ,-1.4458080293192588e-06 ,      0.0 ,      0.0 ,      0.0 ,1.6039127699140375e-06  ,-4.6914114161948624e-05 ,      0.0 ,-4.531020542747563e-05  ,2.756124949046454e-05  ,0.9489729634899646   ,0.13941168269600682     ,-0.0005285434940362238  ,-1.8958041173879427e-06 ,0.0024394134480711597  ,-102.05164321661934    ,0.0 ,-16.1664688131134     ,-16.1664688131134       ,        0.0 ,        0.0 , 0.0
 0.0 ,0.0 ,           0.0 ,            0.0 ,            0.0 ,            0.0 ,              0.0 ,                   0.0 ,1353.0 ,55.77825 ,-30.24174 ,           0.0 ,           0.0 ,       0.0 ,-115.7205      ,-18.66969   ,0.001315486      ,-0.001421399     ,                 0.0 ,             0.0 ,             0.0 ,                 0.0 ,                 0.0 ,        0.0 ,1.5002271689756195     ,            0.0 ,            0.0 ,            0.0 ,              0.0 ,                   0.0 ,  0.0 ,0.0 ,1252.1550354668293   ,1.0                ,0.0 ,-208.6885329712107  ,-420.61423333242385 ,1.2681285505083646      ,-209.33025315207536 ,          0.0 ,          0.0 ,-208.6778517436154  ,-420.62496168342165 ,-209.33025315207536 ,-838.6331108486343  ,122.18002356049396   ,279.5443731519033   ,211.6220025134944    ,-324.2442492022339    ,-536.1700024400446  ,1.2681285505083646      ,-324.8860136526205  ,          0.0 ,          0.0 ,-324.2336122441605   ,-536.1806836676399  ,-324.8860136526205  ,-1185.3002722822375 ,122.18002356049396   ,395.1000893829265    ,211.6220025134944    ,2.2755215908440455e-07  ,-1.7006004198767828e-05 ,-1.6643716078774073e-06 ,      0.0 ,      0.0 ,      0.0 ,2.6941771652459007e-07  ,-1.704787015463371e-05  ,      0.0 ,-1.6778454503966924e-05 ,9.9217780353433e-06    ,0.839731758316119    ,0.44144070872533947     ,-0.0025561356715161133  ,-1.5531625296842148e-05 ,0.0012552672603090267  ,-67.71192343463078     ,0.0 ,-47.841319694162564   ,-47.841319694162564     ,        0.0 ,        0.0 , 0.0
 0.0 ,0.0 ,           0.0 ,            0.0 ,            0.0 ,            0.0 ,              0.0 ,                   0.0 ,1354.0 ,54.12914 ,-30.47737 ,           0.0 ,           0.0 ,       0.0 ,-118.0437      ,-18.67301   ,-0.007389952     ,-0.0005427741    ,                 0.0 ,             0.0 ,             0.0 ,                 0.0 ,                 0.0 ,        0.0 ,1.9753729670456708     ,            0.0 ,            0.0 ,            0.0 ,              0.0 ,                   0.0 ,  0.0 ,0.0 ,1253.6017115013456   ,1.0                ,0.0 ,-210.18018279801933 ,-423.3215821396464  ,0.36284342287605886     ,-210.45079697210792 ,          0.0 ,          0.0 ,-210.17949350694246 ,-423.3222714307233  ,-210.45079697210792 ,-843.9526101964623  ,122.97979254262334   ,281.3175533273116   ,213.00722597667053   ,-327.08497835378773   ,-540.2264250181839  ,0.36284342287605886     ,-327.35564081456494 ,          0.0 ,          0.0 ,-327.0843373493995   ,-540.2271143092609  ,-327.35564081456494 ,-1194.6672949359283 ,122.97979254262334   ,398.2223488830799    ,213.00722597667053   ,1.0480426740328737e-06  ,-4.1437402778239834e-05 ,-2.500040871983121e-06  ,      0.0 ,      0.0 ,      0.0 ,1.0980070388999859e-06  ,-4.1487365023445346e-05 ,      0.0 ,-4.038935963573351e-05  ,2.4277357897284943e-05 ,0.6405480692800787   ,1.0                     ,-0.0038808369827342914  ,-2.2627450348904007e-05 ,0.0                    ,0.003880903689198757   ,0.0 ,-116.90484384245701   ,-116.90484384245701     ,        0.0 ,        0.0 , 0.0
 0.0 ,0.0 ,           0.0 ,            0.0 ,            0.0 ,            0.0 ,              0.0 ,                   0.0 ,1355.0 ,52.35522 ,-30.54125 ,           0.0 ,           0.0 ,       0.0 ,-118.6466      ,-18.67658   ,-0.0004240286    ,0.0007830551     ,                 0.0 ,             0.0 ,             0.0 ,                 0.0 ,                 0.0 ,        0.0 ,1.5291820655884876     ,            0.0 ,            0.0 ,            0.0 ,              0.0 ,                   0.0 ,  0.0 ,0.0 ,1254.5343409293919   ,1.0                ,0.0 ,-210.53177148380996 ,-424.10774722389544 ,0.08266970000644484     ,-210.69135764502846 ,          0.0 ,          0.0 ,-210.53147573214818 ,-424.10804297555717 ,-210.69135764502846 ,-845.3308763527339  ,123.26238036345102   ,281.7769578287053   ,213.49667564769737   ,-327.49599938833995   ,-541.0719236951165  ,0.08266970000644484     ,-327.65558406466084 ,          0.0 ,          0.0 ,-327.4957021517806   ,-541.0722194467783  ,-327.65558406466084 ,-1196.2237453205253 ,123.26238036345102   ,398.74118424833773   ,213.49667564769737   ,9.409608068353064e-07   ,-4.812193885743426e-05  ,-2.511268732075002e-06  ,      0.0 ,      0.0 ,      0.0 ,9.781900447861255e-07   ,-4.815916479794818e-05  ,      0.0 ,-4.718097282933493e-05  ,2.809432981427428e-05  ,0.64621173594716     ,0.9850663934648826      ,-0.0028797898939604445  ,-1.3378889247754579e-05 ,8.463161983135012e-05  ,-1.8988408380531743    ,0.0 ,-115.06250618612795   ,-115.06250618612795     ,        0.0 ,        0.0 , 0.0
 0.0 ,0.0 ,           0.0 ,            0.0 ,            0.0 ,            0.0 ,              0.0 ,                   0.0 ,1356.0 ,50.53152 ,-30.61707 ,           0.0 ,           0.0 ,       0.0 ,-119.3679      ,-18.68028   ,0.0004049323     ,-0.0002506467    ,                 0.0 ,             0.0 ,             0.0 ,                 0.0 ,                 0.0 ,        0.0 ,3.5040787557237163     ,            0.0 ,            0.0 ,            0.0 ,              0.0 ,                   0.0 ,  0.0 ,0.0 ,1255.9566319868559   ,1.0                ,0.0 ,-211.09436380603864 ,-424.6728592094464  ,0.11930532754851135     ,-211.1646642036153  ,          0.0 ,          0.0 ,-211.0942647508126  ,-424.6729582646725  ,-211.1646642036153  ,-846.9318872191004  ,123.28938671147836   ,282.31062936645435  ,213.5435433311994    ,-329.35620830482435   ,-542.934654180619   ,0.11930532754851135     ,-329.4264591747879  ,          0.0 ,          0.0 ,-329.3560597219852   ,-542.934753235845   ,-329.4264591747879  ,-1201.7170738608875 ,123.28938671147836   ,400.5724243376269    ,213.5435433311994    ,1.1196880133617378e-07  ,-4.2239219069869504e-05 ,-3.831480806713739e-06  ,      0.0 ,      0.0 ,      0.0 ,2.0709333666537775e-07  ,-4.2334344966243605e-05 ,      0.0 ,-4.212725535974006e-05  ,2.4509362351287998e-05 ,0.8178184851864367   ,0.5019010830178949      ,-0.0012672597678126648  ,-8.939829846491075e-06  ,0.00282282234243326    ,-63.42915714647716     ,0.0 ,-54.83138474280461    ,-54.83138474280461      ,        0.0 ,        0.0 , 0.0
 0.0 ,0.0 ,           0.0 ,            0.0 ,            0.0 ,            0.0 ,              0.0 ,                   0.0 ,1357.0 ,48.69406 ,-30.7142  ,           0.0 ,           0.0 ,       0.0 ,-120.3016      ,-18.68404   ,-0.003956547     ,0.0001286921     ,                 0.0 ,             0.0 ,             0.0 ,                 0.0 ,                 0.0 ,        0.0 ,3.00143453233721       ,            0.0 ,            0.0 ,            0.0 ,              0.0 ,                   0.0 ,  0.0 ,0.0 ,1256.9995683321172   ,1.0                ,0.0 ,-211.66185953422678 ,-426.01987164626235 ,-0.012919308438967112   ,-211.70596537779446 ,          0.0 ,          0.0 ,-211.66185912545046 ,-426.01987205503866 ,-211.70596537779446 ,-849.3876965582836  ,123.74690825246626   ,283.1292321657829   ,214.335984920844     ,-330.3056701531492    ,-544.6636820607966  ,-0.012919308438967112   ,-330.34977579232867 ,          0.0 ,          0.0 ,-330.3056695399847   ,-544.6636824695729  ,-330.34977579232867 ,-1205.318877853937  ,123.74690825246626   ,401.7730425803171    ,214.335984920844     ,-3.5443955936330766e-07 ,-4.768291631049865e-05  ,-3.55165386624248e-06   ,      0.0 ,      0.0 ,      0.0 ,-2.870432516339629e-07  ,-4.775031267192731e-05  ,      0.0 ,-4.8037359625106225e-05 ,2.748794307642059e-05  ,0.641232240162971    ,0.997944469525581       ,-0.0030661664978128183  ,-1.4832703467081437e-05 ,1.1649086458364324e-05 ,-0.2586953945022147    ,0.0 ,-118.3820488712262    ,-118.3820488712262      ,        0.0 ,        0.0 , 0.0
 0.0 ,0.0 ,           0.0 ,            0.0 ,            0.0 ,            0.0 ,              0.0 ,                   0.0 ,1358.0 ,46.86249 ,-30.82893 ,           0.0 ,           0.0 ,       0.0 ,-121.4111      ,-18.68782   ,-0.006652109     ,-0.0001597867    ,                 0.0 ,             0.0 ,             0.0 ,                 0.0 ,                 0.0 ,        0.0 ,3.0148759385519868     ,            0.0 ,            0.0 ,            0.0 ,              0.0 ,                   0.0 ,  0.0 ,0.0 ,1257.9150533287952   ,1.0                ,0.0 ,-211.9728347193916  ,-427.18804714368355 ,0.0030764116952431628   ,-212.18102329209364 ,          0.0 ,          0.0 ,-211.9728347193916  ,-427.18809788748047 ,-212.18102329209364 ,-851.3419062118666  ,124.19451806329587   ,283.78063554758756  ,215.11126804048797   ,-331.71182209237617   ,-546.9270345166681  ,0.0030764116952431628   ,-331.92001066507817 ,          0.0 ,          0.0 ,-331.7118210356783   ,-546.9270842037672  ,-331.92001066507817 ,-1210.5585681359144 ,124.19451806329587   ,403.51962186387425   ,215.11126804048797   ,2.616027331963706e-07   ,-4.703942822724218e-05  ,-3.1631931313344275e-06 ,      0.0 ,      0.0 ,      0.0 ,3.1732436866326195e-07  ,-4.709514944987016e-05  ,      0.0 ,-4.6777829742032775e-05 ,2.7282477814528514e-05 ,0.8236400366349863   ,0.49129974444870617     ,-0.0018116567703553473  ,-5.9117196415089136e-06 ,0.0012623036655622039  ,-56.36700725783359     ,0.0 ,-63.3701740131725     ,-63.3701740131725       ,        0.0 ,        0.0 , 0.0
 0.0 ,0.0 ,           0.0 ,            0.0 ,            0.0 ,            0.0 ,              0.0 ,                   0.0 ,1359.0 ,45.05875 ,-30.95599 ,           0.0 ,           0.0 ,       0.0 ,-122.6439      ,-18.6916    ,-0.007590959     ,-0.0002676337    ,                 0.0 ,             0.0 ,             0.0 ,                 0.0 ,                 0.0 ,        0.0 ,3.018454973684879      ,            0.0 ,            0.0 ,            0.0 ,              0.0 ,                   0.0 ,  0.0 ,0.0 ,1258.8864467552066   ,1.0                ,0.0 ,-212.34326969809314 ,-428.6054701412241  ,-0.16842776499759293    ,-212.85147927577395 ,          0.0 ,          0.0 ,-212.3431224920065  ,-428.6055701412241  ,-212.85147927577395 ,-853.8002191150912  ,124.71276817489499   ,284.60010637169705  ,216.0088609397621    ,-333.2854223386014    ,-549.5476227817323  ,-0.16842776499759293    ,-333.79368096786624 ,          0.0 ,          0.0 ,-333.28532420976603  ,-549.5477718589837  ,-333.79368096786624 ,-1216.626822294536  ,124.71276817489499   ,405.54225901220525   ,216.0088609397621    ,1.6168019013626984e-07  ,-4.686474840965075e-05  ,-2.833317097321484e-06  ,      0.0 ,      0.0 ,      0.0 ,2.0492524440322853e-07  ,-4.690799422649344e-05  ,      0.0 ,-4.670307111552485e-05  ,2.714204777800134e-05  ,0.6499140180995788   ,0.9812418059148224      ,-0.0030216508033690343  ,-1.0858246962896988e-05 ,4.6548065227455174e-05 ,-2.0760913806766204    ,0.0 ,-118.86303983210988   ,-118.86303983210988     ,        0.0 ,        0.0 , 0.0
 0.0 ,0.0 ,           0.0 ,            0.0 ,            0.0 ,            0.0 ,              0.0 ,                   0.0 ,1360.0 ,43.30799 ,-31.08983 ,           0.0 ,           0.0 ,       0.0 ,-123.945       ,-18.69533   ,-0.007104075     ,-0.0003255872    ,                 0.0 ,             0.0 ,             0.0 ,                 0.0 ,                 0.0 ,        0.0 ,2.9550381302338447     ,            0.0 ,            0.0 ,            0.0 ,              0.0 ,                   0.0 ,  0.0 ,0.0 ,1265.539328741465    ,1.0                ,0.0 ,-212.75023585723613 ,-430.12993685609825 ,-0.512668640573424      ,-213.5764049314118  ,          0.0 ,          0.0 ,-212.7488391915305  ,-430.13132974262766 ,-213.5764049314118  ,-856.4565776447461  ,125.26773616134302   ,285.48552714130744  ,216.97003764243777   ,-335.00409985031905   ,-552.3838493180983  ,-0.512668640573424      ,-335.8302689244946  ,          0.0 ,          0.0 ,-335.0027554327069   ,-552.3852459838039  ,-335.8302689244946  ,-1223.2183597204873 ,125.26773616134302   ,407.7394396033076    ,216.97003764243777   ,2.862040467247558e-07   ,-4.662783855197578e-05  ,-3.0355980790303654e-06 ,      0.0 ,      0.0 ,      0.0 ,3.36822047156405e-07    ,-4.667845777293202e-05  ,      0.0 ,-4.6341634683696165e-05 ,2.7048009900390643e-05 ,0.6448110658560995   ,1.0                     ,-0.0031066995872589187  ,-9.323441220321664e-06  ,0.0                    ,0.00310671415664295    ,0.0 ,-122.25391246200009   ,-122.25391246200009     ,        0.0 ,        0.0 , 0.0
 0.0 ,0.0 ,           0.0 ,            0.0 ,            0.0 ,            0.0 ,              0.0 ,                   0.0 ,1361.0 ,55.93207 ,-32.79298 ,           0.0 ,           0.0 ,       0.0 ,-141.234       ,-18.66958   ,-0.01717562      ,0.001498811      ,                 0.0 ,             0.0 ,             0.0 ,                 0.0 ,                 0.0 ,        0.0 ,0.6892892416829772     ,            0.0 ,            0.0 ,            0.0 ,              0.0 ,                   0.0 ,  0.0 ,0.0 ,1248.986833985193    ,1.0                ,0.0 ,-220.07093693148104 ,-442.70236559198736 ,0.7380945155752509      ,-220.26704783260885 ,          0.0 ,          0.0 ,-220.06724410833445 ,-442.70605841513407 ,-220.26704783260885 ,-883.0403802037096  ,128.4830966998026    ,294.3468064283338   ,222.53926307967367   ,-359.86503362900646   ,-582.4964622895128  ,0.7380945155752509      ,-360.06114453013424 ,          0.0 ,          0.0 ,-359.86134080585987  ,-582.5001551126594  ,-360.06114453013424 ,-1302.4225530524097 ,128.4830966998026    ,434.1409031258592    ,222.53926307967367   ,1.5979284533214803e-06  ,-3.533683988632923e-05  ,-9.532442950381204e-07  ,      0.0 ,      0.0 ,      0.0 ,1.6144883537405003e-06  ,-3.5353396432638634e-05 ,      0.0 ,-3.373891085752163e-05  ,2.089336285711302e-05  ,0.7812960418299736   ,0.6083415491713597      ,-0.001270835009627405   ,-2.3569811952937916e-05 ,0.0008455386017133158  ,-56.41535198722043     ,0.0 ,-83.37744718276028    ,-83.37744718276028      ,        0.0 ,        0.0 , 0.0
 0.0 ,0.0 ,           0.0 ,            0.0 ,            0.0 ,            0.0 ,              0.0 ,                   0.0 ,1362.0 ,56.6667  ,-31.82085 ,           0.0 ,           0.0 ,       0.0 ,-131.5281      ,-18.66804   ,0.00328509       ,-0.001475673     ,                 0.0 ,             0.0 ,             0.0 ,                 0.0 ,                 0.0 ,        0.0 ,0.1058771412052604     ,            0.0 ,            0.0 ,            0.0 ,              0.0 ,                   0.0 ,  0.0 ,0.0 ,1256.3864599811347   ,1.0                ,0.0 ,-215.55158005985453 ,-433.72683395267586 ,1.5496424615973134      ,-216.0277488298268  ,          0.0 ,          0.0 ,-215.53826809398606 ,-433.74019515225655 ,-216.0277488298268  ,-865.3062014883553  ,125.83835940746334   ,288.43540049611846  ,217.9584084215942    ,-346.85885976312574   ,-565.0341136559471  ,1.5496424615973134      ,-347.335028533098   ,          0.0 ,          0.0 ,-346.84554779725727  ,-565.0474256218156  ,-347.335028533098   ,-1259.227899779888  ,125.83835940746334   ,419.7426801993896    ,217.9584084215942    ,1.4424320560096337e-07  ,-5.364845565898323e-06  ,-1.5916817681096292e-08 ,      0.0 ,      0.0 ,      0.0 ,1.4425474620935475e-07  ,-5.364857212383856e-06  ,      0.0 ,-5.220602783805924e-06  ,3.1398734416977856e-06 ,0.8552411795127273   ,0.40057464024131084     ,-0.0008442166965408732  ,-2.638692065236428e-05  ,0.0012118888179759317  ,-74.57087434106326     ,0.0 ,-56.73560134475284    ,-56.73560134475284      ,        0.0 ,        0.0 , 0.0
 0.0 ,0.0 ,           0.0 ,            0.0 ,            0.0 ,            0.0 ,              0.0 ,                   0.0 ,1363.0 ,55.52441 ,-31.53698 ,           0.0 ,           0.0 ,       0.0 ,-128.6667      ,-18.67031   ,0.01094889       ,0.002323202      ,                 0.0 ,             0.0 ,             0.0 ,                 0.0 ,                 0.0 ,        0.0 ,1.1885986149063383     ,            0.0 ,            0.0 ,            0.0 ,              0.0 ,                   0.0 ,  0.0 ,0.0 ,1258.6520278581288   ,1.0                ,0.0 ,-214.5994518536102  ,-431.7325711294592  ,0.7888082097216371      ,-214.86519244876956 ,          0.0 ,          0.0 ,-214.5936899275146  ,-431.738352471053   ,-214.86519244876956 ,-861.1972771564792  ,125.2903863788286    ,287.065771810613    ,217.00932130308354   ,-341.8980019012434    ,-559.0311211770924  ,0.7888082097216371      ,-342.1637424964028  ,          0.0 ,          0.0 ,-341.8922399751478   ,-559.0368831031881  ,-342.1637424964028  ,-1243.0928501930225 ,125.2903863788286    ,414.36432185824617   ,217.00932130308354   ,5.821770890046396e-07   ,-3.7762747278706995e-05 ,-2.685545040159576e-06  ,      0.0 ,      0.0 ,      0.0 ,6.295021659842221e-07   ,-3.7810070161616296e-05 ,      0.0 ,-3.718057375343573e-05  ,2.2018012373870617e-05 ,0.8486695069805399   ,0.42130580298071835     ,-0.00093581246551351    ,-4.485209069942845e-06  ,0.00178593617514544    ,-71.30275426404778     ,0.0 ,-55.99483788937865    ,-55.99483788937865      ,        0.0 ,        0.0 , 0.0
 0.0 ,0.0 ,           0.0 ,            0.0 ,            0.0 ,            0.0 ,              0.0 ,                   0.0 ,1364.0 ,41.66735 ,-31.21758 ,           0.0 ,           0.0 ,       0.0 ,-125.1869      ,-18.69889   ,-0.005755864     ,-0.0006431561    ,                 0.0 ,             0.0 ,             0.0 ,                 0.0 ,                 0.0 ,        0.0 ,2.2103497602020807     ,            0.0 ,            0.0 ,            0.0 ,              0.0 ,                   0.0 ,  0.0 ,0.0 ,1266.9788706173001   ,1.0                ,0.0 ,-213.13439031054384 ,-431.10902202805573 ,-1.1106485256934575     ,-214.13886321054318 ,          0.0 ,          0.0 ,-213.12788584763166 ,-431.1155264909679  ,-214.13886321054318 ,-858.3822755491428  ,125.56444118813364   ,286.12745536270796  ,217.48398130699957   ,-336.9318071905794    ,-554.9063925821316  ,-1.1106485256934575     ,-337.93623376461903 ,          0.0 ,          0.0 ,-336.92530272766726  ,-554.9128970450438  ,-337.93623376461903 ,-1229.7740713814055 ,125.56444118813364   ,409.9248259167839    ,217.48398130699957   ,4.013244863655844e-07   ,-4.308962831958629e-05  ,-3.3015758084616704e-06 ,      0.0 ,      0.0 ,      0.0 ,4.801157095295709e-07   ,-4.316842426376617e-05  ,      0.0 ,-4.268830811401143e-05  ,2.5063798681856434e-05 ,0.8016330748975573   ,0.5569071360520361      ,-0.0028897775323592093  ,-8.283688379916058e-06  ,0.0009626505576702008  ,-51.75813567936009     ,0.0 ,-72.0363463215467     ,-72.0363463215467       ,        0.0 ,        0.0 , 0.0
 0.0 ,0.0 ,           0.0 ,            0.0 ,            0.0 ,            0.0 ,              0.0 ,                   0.0 ,1365.0 ,40.29816 ,-31.32006 ,           0.0 ,           0.0 ,       0.0 ,-126.1814      ,-18.70192   ,-0.003243622     ,0.001898217      ,                 0.0 ,             0.0 ,             0.0 ,                 0.0 ,                 0.0 ,        0.0 ,1.3062113348476236     ,            0.0 ,            0.0 ,            0.0 ,              0.0 ,                   0.0 ,  0.0 ,0.0 ,1269.0053881071578   ,1.0                ,0.0 ,-213.36974602899426 ,-431.89903178296845 ,-1.847183641671072      ,-214.62927999615647 ,          0.0 ,          0.0 ,-213.35282347951255 ,-431.9159219762346  ,-214.62927999615647 ,-859.8980578081192  ,125.82062862492171   ,286.6326857564361   ,217.92768319219053   ,-338.61856573535226   ,-557.147885580624   ,-1.847183641671072      ,-339.8781661500276  ,          0.0 ,          0.0 ,-338.60167727716816  ,-557.1647740388081  ,-339.8781661500276  ,-1235.6441833747062 ,125.82062862492171   ,411.8815719103073    ,217.92768319219053   ,3.274393217294419e-07   ,-2.872178940612011e-05  ,-2.230270135195896e-06  ,      0.0 ,      0.0 ,      0.0 ,3.809094056840037e-07   ,-2.8775260832960334e-05 ,      0.0 ,-2.8394351587804253e-05 ,1.672472960587644e-05  ,0.8851842280164552   ,0.3220730018325911      ,-0.001970882032980518   ,-4.299474506835648e-06  ,0.0014978907859247883  ,-84.43652355130877     ,0.0 ,-40.810474026095946   ,-40.810474026095946     ,        0.0 ,        0.0 , 0.0
 0.0 ,0.0 ,           0.0 ,            0.0 ,            0.0 ,            0.0 ,              0.0 ,                   0.0 ,1366.0 ,125.0    ,0.0       ,           0.0 ,           0.0 ,       0.0 ,0.0            ,-0.0        ,1.205562         ,-5.551115e-16    ,                 0.0 ,             0.0 ,             0.0 ,                 0.0 ,                 0.0 ,        0.0 ,0.0                    ,            0.0 ,            0.0 ,            0.0 ,              0.0 ,                   0.0 ,  0.0 ,0.0 ,  63.0526890076239   ,-19.13493555082592 ,0.0 ,-150.20647096360102 ,-301.8961131095082  ,-0.9660051654729485     ,-150.84806452398357 ,          0.0 ,          0.0 ,-149.69559048054901 ,-302.40699445125637 ,-150.84806452398357 ,-602.9506491411203  , 87.8937275420447    ,200.98354996185654  ,152.23640201469016   ,-195.62452991762592   ,-347.3141746533202  ,-0.9660051654729485     ,-196.26612436533654 ,          0.0 ,          0.0 ,-195.1136501735405   ,-347.8250543585413  ,-196.26612436533654 ,-739.204823850142   , 87.8937275420447    ,246.4016094143192    ,152.23640201469016   ,-2.1993138581648397e-07 ,-1.3757231431372854e-05 ,-8.025748206091332e-07  ,      0.0 ,      0.0 ,      0.0 ,9.084547298373262e-07   ,-1.488561759416882e-05  ,      0.0 ,-1.397716300294931e-05  ,9.053272662137981e-06  ,0.5732550085034905   ,0.2946648442233249      ,-0.005997995722761869   ,-0.0033391805167947105  ,0.006388475128528773   ,-3.1676430553497203    ,0.0 ,-3.973368943820623    ,-23.19387943808092      ,        0.0 ,        0.0 , 0.0
 0.0 ,0.0 ,           0.0 ,            0.0 ,            0.0 ,            0.0 ,              0.0 ,                   0.0 ,1367.0 ,123.0469 ,0.0       ,           0.0 ,           0.0 ,       0.0 ,20.39964       ,-2.039963   ,-2.220446e-16    ,-6.661338e-16    ,                 0.0 ,             0.0 ,             0.0 ,                 0.0 ,                 0.0 ,        0.0 ,0.0                    ,            0.0 ,            0.0 ,            0.0 ,              0.0 ,                   0.0 ,  0.0 ,0.0 ,  63.0526890076239   ,-19.13493555082592 ,0.0 ,-150.20647096360102 ,-301.8961131095082  ,-0.9660051654729485     ,-150.84806452398357 ,          0.0 ,          0.0 ,-149.69559048054901 ,-302.40699445125637 ,-150.84806452398357 ,-602.9506491411203  , 87.8937275420447    ,200.98354996185654  ,152.23640201469016   ,-195.62452991762592   ,-347.3141746533202  ,-0.9660051654729485     ,-196.26612436533654 ,          0.0 ,          0.0 ,-195.1136501735405   ,-347.8250543585413  ,-196.26612436533654 ,-739.204823850142   , 87.8937275420447    ,246.4016094143192    ,152.23640201469016   ,-2.1993138581648397e-07 ,-1.3757231431372854e-05 ,-8.025748206091332e-07  ,      0.0 ,      0.0 ,      0.0 ,9.084547298373262e-07   ,-1.488561759416882e-05  ,      0.0 ,-1.397716300294931e-05  ,9.053272662137981e-06  ,0.5732550085034905   ,0.2946648442233249      ,-0.005997995722761869   ,-0.0033391805167947105  ,0.006388475128528773   ,-3.1676430553497203    ,0.0 ,-3.973368943820623    ,-23.19387943808092      ,        0.0 ,        0.0 , 0.0
 0.0 ,0.0 ,           0.0 ,            0.0 ,            0.0 ,            0.0 ,              0.0 ,                   0.0 ,1368.0 ,121.0938 ,0.0       ,           0.0 ,           0.0 ,       0.0 ,29.32751       ,-2.932751   ,1.110223e-16     ,1.554312e-15     ,                 0.0 ,             0.0 ,             0.0 ,                 0.0 ,                 0.0 ,        0.0 ,0.0                    ,            0.0 ,            0.0 ,            0.0 ,              0.0 ,                   0.0 ,  0.0 ,0.0 ,  63.0526890076239   ,-19.13493555082592 ,0.0 ,-150.20647096360102 ,-301.8961131095082  ,-0.9660051654729485     ,-150.84806452398357 ,          0.0 ,          0.0 ,-149.69559048054901 ,-302.40699445125637 ,-150.84806452398357 ,-602.9506491411203  , 87.8937275420447    ,200.98354996185654  ,152.23640201469016   ,-195.62452991762592   ,-347.3141746533202  ,-0.9660051654729485     ,-196.26612436533654 ,          0.0 ,          0.0 ,-195.1136501735405   ,-347.8250543585413  ,-196.26612436533654 ,-739.204823850142   , 87.8937275420447    ,246.4016094143192    ,152.23640201469016   ,-2.1993138581648397e-07 ,-1.3757231431372854e-05 ,-8.025748206091332e-07  ,      0.0 ,      0.0 ,      0.0 ,9.084547298373262e-07   ,-1.488561759416882e-05  ,      0.0 ,-1.397716300294931e-05  ,9.053272662137981e-06  ,0.5732550085034905   ,0.2946648442233249      ,-0.005997995722761869   ,-0.0033391805167947105  ,0.006388475128528773   ,-3.1676430553497203    ,0.0 ,-3.973368943820623    ,-23.19387943808092      ,        0.0 ,        0.0 , 0.0
 0.0 ,0.0 ,           0.0 ,            0.0 ,            0.0 ,            0.0 ,              0.0 ,                   0.0 ,1369.0 ,119.1406 ,0.0       ,           0.0 ,           0.0 ,       0.0 ,46.82421       ,-4.682421   ,-2.220446e-16    ,-7.771561e-16    ,                 0.0 ,             0.0 ,             0.0 ,                 0.0 ,                 0.0 ,        0.0 ,0.0                    ,            0.0 ,            0.0 ,            0.0 ,              0.0 ,                   0.0 ,  0.0 ,0.0 ,  63.0526890076239   ,-19.13493555082592 ,0.0 ,-150.20647096360102 ,-301.8961131095082  ,-0.9660051654729485     ,-150.84806452398357 ,          0.0 ,          0.0 ,-149.69559048054901 ,-302.40699445125637 ,-150.84806452398357 ,-602.9506491411203  , 87.8937275420447    ,200.98354996185654  ,152.23640201469016   ,-195.62452991762592   ,-347.3141746533202  ,-0.9660051654729485     ,-196.26612436533654 ,          0.0 ,          0.0 ,-195.1136501735405   ,-347.8250543585413  ,-196.26612436533654 ,-739.204823850142   , 87.8937275420447    ,246.4016094143192    ,152.23640201469016   ,-2.1993138581648397e-07 ,-1.3757231431372854e-05 ,-8.025748206091332e-07  ,      0.0 ,      0.0 ,      0.0 ,9.084547298373262e-07   ,-1.488561759416882e-05  ,      0.0 ,-1.397716300294931e-05  ,9.053272662137981e-06  ,0.5732550085034905   ,0.2946648442233249      ,-0.005997995722761869   ,-0.0033391805167947105  ,0.006388475128528773   ,-3.1676430553497203    ,0.0 ,-3.973368943820623    ,-23.19387943808092      ,        0.0 ,        0.0 , 0.0
 0.0 ,0.0 ,           0.0 ,            0.0 ,            0.0 ,            0.0 ,              0.0 ,                   0.0 ,1370.0 ,117.1875 ,0.0       ,           0.0 ,           0.0 ,       0.0 ,60.7406        ,-6.07406    ,2.220446e-16     ,-2.220446e-16    ,                 0.0 ,             0.0 ,             0.0 ,                 0.0 ,                 0.0 ,        0.0 ,0.0                    ,            0.0 ,            0.0 ,            0.0 ,              0.0 ,                   0.0 ,  0.0 ,0.0 ,  63.0526890076239   ,-19.13493555082592 ,0.0 ,-150.20647096360102 ,-301.8961131095082  ,-0.9660051654729485     ,-150.84806452398357 ,          0.0 ,          0.0 ,-149.69559048054901 ,-302.40699445125637 ,-150.84806452398357 ,-602.9506491411203  , 87.8937275420447    ,200.98354996185654  ,152.23640201469016   ,-195.62452991762592   ,-347.3141746533202  ,-0.9660051654729485     ,-196.26612436533654 ,          0.0 ,          0.0 ,-195.1136501735405   ,-347.8250543585413  ,-196.26612436533654 ,-739.204823850142   , 87.8937275420447    ,246.4016094143192    ,152.23640201469016   ,-2.1993138581648397e-07 ,-1.3757231431372854e-05 ,-8.025748206091332e-07  ,      0.0 ,      0.0 ,      0.0 ,9.084547298373262e-07   ,-1.488561759416882e-05  ,      0.0 ,-1.397716300294931e-05  ,9.053272662137981e-06  ,0.5732550085034905   ,0.2946648442233249      ,-0.005997995722761869   ,-0.0033391805167947105  ,0.006388475128528773   ,-3.1676430553497203    ,0.0 ,-3.973368943820623    ,-23.19387943808092      ,        0.0 ,        0.0 , 0.0
 0.0 ,0.0 ,           0.0 ,            0.0 ,            0.0 ,            0.0 ,              0.0 ,                   0.0 ,1371.0 ,115.2344 ,0.0       ,           0.0 ,           0.0 ,       0.0 ,76.05596       ,-7.605597   ,-2.220446e-16    ,3.330669e-16     ,                 0.0 ,             0.0 ,             0.0 ,                 0.0 ,                 0.0 ,        0.0 ,0.0                    ,            0.0 ,            0.0 ,            0.0 ,              0.0 ,                   0.0 ,  0.0 ,0.0 ,  63.0526890076239   ,-19.13493555082592 ,0.0 ,-150.20647096360102 ,-301.8961131095082  ,-0.9660051654729485     ,-150.84806452398357 ,          0.0 ,          0.0 ,-149.69559048054901 ,-302.40699445125637 ,-150.84806452398357 ,-602.9506491411203  , 87.8937275420447    ,200.98354996185654  ,152.23640201469016   ,-195.62452991762592   ,-347.3141746533202  ,-0.9660051654729485     ,-196.26612436533654 ,          0.0 ,          0.0 ,-195.1136501735405   ,-347.8250543585413  ,-196.26612436533654 ,-739.204823850142   , 87.8937275420447    ,246.4016094143192    ,152.23640201469016   ,-2.1993138581648397e-07 ,-1.3757231431372854e-05 ,-8.025748206091332e-07  ,      0.0 ,      0.0 ,      0.0 ,9.084547298373262e-07   ,-1.488561759416882e-05  ,      0.0 ,-1.397716300294931e-05  ,9.053272662137981e-06  ,0.5732550085034905   ,0.2946648442233249      ,-0.005997995722761869   ,-0.0033391805167947105  ,0.006388475128528773   ,-3.1676430553497203    ,0.0 ,-3.973368943820623    ,-23.19387943808092      ,        0.0 ,        0.0 , 0.0
 0.0 ,0.0 ,           0.0 ,            0.0 ,            0.0 ,            0.0 ,              0.0 ,                   0.0 ,1372.0 ,113.2813 ,0.0       ,           0.0 ,           0.0 ,       0.0 ,91.73054       ,-9.173054   ,-8.326673e-16    ,-2.331468e-15    ,                 0.0 ,             0.0 ,             0.0 ,                 0.0 ,                 0.0 ,        0.0 ,0.0                    ,            0.0 ,            0.0 ,            0.0 ,              0.0 ,                   0.0 ,  0.0 ,0.0 ,  63.0526890076239   ,-19.13493555082592 ,0.0 ,-150.20647096360102 ,-301.8961131095082  ,-0.9660051654729485     ,-150.84806452398357 ,          0.0 ,          0.0 ,-149.69559048054901 ,-302.40699445125637 ,-150.84806452398357 ,-602.9506491411203  , 87.8937275420447    ,200.98354996185654  ,152.23640201469016   ,-195.62452991762592   ,-347.3141746533202  ,-0.9660051654729485     ,-196.26612436533654 ,          0.0 ,          0.0 ,-195.1136501735405   ,-347.8250543585413  ,-196.26612436533654 ,-739.204823850142   , 87.8937275420447    ,246.4016094143192    ,152.23640201469016   ,-2.1993138581648397e-07 ,-1.3757231431372854e-05 ,-8.025748206091332e-07  ,      0.0 ,      0.0 ,      0.0 ,9.084547298373262e-07   ,-1.488561759416882e-05  ,      0.0 ,-1.397716300294931e-05  ,9.053272662137981e-06  ,0.5732550085034905   ,0.2946648442233249      ,-0.005997995722761869   ,-0.0033391805167947105  ,0.006388475128528773   ,-3.1676430553497203    ,0.0 ,-3.973368943820623    ,-23.19387943808092      ,        0.0 ,        0.0 , 0.0
 0.0 ,0.0 ,           0.0 ,            0.0 ,            0.0 ,            0.0 ,              0.0 ,                   0.0 ,1373.0 ,111.3281 ,0.0       ,           0.0 ,           0.0 ,       0.0 ,107.79         ,-10.779     ,-1.110223e-16    ,1.110223e-15     ,                 0.0 ,             0.0 ,             0.0 ,                 0.0 ,                 0.0 ,        0.0 ,0.0                    ,            0.0 ,            0.0 ,            0.0 ,              0.0 ,                   0.0 ,  0.0 ,0.0 ,  63.0526890076239   ,-19.13493555082592 ,0.0 ,-150.20647096360102 ,-301.8961131095082  ,-0.9660051654729485     ,-150.84806452398357 ,          0.0 ,          0.0 ,-149.69559048054901 ,-302.40699445125637 ,-150.84806452398357 ,-602.9506491411203  , 87.8937275420447    ,200.98354996185654  ,152.23640201469016   ,-195.62452991762592   ,-347.3141746533202  ,-0.9660051654729485     ,-196.26612436533654 ,          0.0 ,          0.0 ,-195.1136501735405   ,-347.8250543585413  ,-196.26612436533654 ,-739.204823850142   , 87.8937275420447    ,246.4016094143192    ,152.23640201469016   ,-2.1993138581648397e-07 ,-1.3757231431372854e-05 ,-8.025748206091332e-07  ,      0.0 ,      0.0 ,      0.0 ,9.084547298373262e-07   ,-1.488561759416882e-05  ,      0.0 ,-1.397716300294931e-05  ,9.053272662137981e-06  ,0.5732550085034905   ,0.2946648442233249      ,-0.005997995722761869   ,-0.0033391805167947105  ,0.006388475128528773   ,-3.1676430553497203    ,0.0 ,-3.973368943820623    ,-23.19387943808092      ,        0.0 ,        0.0 , 0.0
 0.0 ,0.0 ,           0.0 ,            0.0 ,            0.0 ,            0.0 ,              0.0 ,                   0.0 ,1374.0 ,109.375  ,0.0       ,           0.0 ,           0.0 ,       0.0 ,123.3843       ,-12.33843   ,1.110223e-16     ,2.220446e-16     ,                 0.0 ,             0.0 ,             0.0 ,                 0.0 ,                 0.0 ,        0.0 ,0.0                    ,            0.0 ,            0.0 ,            0.0 ,              0.0 ,                   0.0 ,  0.0 ,0.0 ,  63.0526890076239   ,-19.13493555082592 ,0.0 ,-150.20647096360102 ,-301.8961131095082  ,-0.9660051654729485     ,-150.84806452398357 ,          0.0 ,          0.0 ,-149.69559048054901 ,-302.40699445125637 ,-150.84806452398357 ,-602.9506491411203  , 87.8937275420447    ,200.98354996185654  ,152.23640201469016   ,-195.62452991762592   ,-347.3141746533202  ,-0.9660051654729485     ,-196.26612436533654 ,          0.0 ,          0.0 ,-195.1136501735405   ,-347.8250543585413  ,-196.26612436533654 ,-739.204823850142   , 87.8937275420447    ,246.4016094143192    ,152.23640201469016   ,-2.1993138581648397e-07 ,-1.3757231431372854e-05 ,-8.025748206091332e-07  ,      0.0 ,      0.0 ,      0.0 ,9.084547298373262e-07   ,-1.488561759416882e-05  ,      0.0 ,-1.397716300294931e-05  ,9.053272662137981e-06  ,0.5732550085034905   ,0.2946648442233249      ,-0.005997995722761869   ,-0.0033391805167947105  ,0.006388475128528773   ,-3.1676430553497203    ,0.0 ,-3.973368943820623    ,-23.19387943808092      ,        0.0 ,        0.0 , 0.0
 0.0 ,0.0 ,           0.0 ,            0.0 ,            0.0 ,            0.0 ,              0.0 ,                   0.0 ,1375.0 ,107.4219 ,0.0       ,           0.0 ,           0.0 ,       0.0 ,137.6578       ,-13.76578   ,7.771561e-16     ,2.220446e-16     ,                 0.0 ,             0.0 ,             0.0 ,                 0.0 ,                 0.0 ,        0.0 ,0.0                    ,            0.0 ,            0.0 ,            0.0 ,              0.0 ,                   0.0 ,  0.0 ,0.0 ,  63.0526890076239   ,-19.13493555082592 ,0.0 ,-150.20647096360102 ,-301.8961131095082  ,-0.9660051654729485     ,-150.84806452398357 ,          0.0 ,          0.0 ,-149.69559048054901 ,-302.40699445125637 ,-150.84806452398357 ,-602.9506491411203  , 87.8937275420447    ,200.98354996185654  ,152.23640201469016   ,-195.62452991762592   ,-347.3141746533202  ,-0.9660051654729485     ,-196.26612436533654 ,          0.0 ,          0.0 ,-195.1136501735405   ,-347.8250543585413  ,-196.26612436533654 ,-739.204823850142   , 87.8937275420447    ,246.4016094143192    ,152.23640201469016   ,-2.1993138581648397e-07 ,-1.3757231431372854e-05 ,-8.025748206091332e-07  ,      0.0 ,      0.0 ,      0.0 ,9.084547298373262e-07   ,-1.488561759416882e-05  ,      0.0 ,-1.397716300294931e-05  ,9.053272662137981e-06  ,0.5732550085034905   ,0.2946648442233249      ,-0.005997995722761869   ,-0.0033391805167947105  ,0.006388475128528773   ,-3.1676430553497203    ,0.0 ,-3.973368943820623    ,-23.19387943808092      ,        0.0 ,        0.0 , 0.0
 0.0 ,0.0 ,           0.0 ,            0.0 ,            0.0 ,            0.0 ,              0.0 ,                   0.0 ,1376.0 ,105.4688 ,0.0       ,           0.0 ,           0.0 ,       0.0 ,149.8964       ,-14.98964   ,0.0              ,-4.440892e-16    ,                 0.0 ,             0.0 ,             0.0 ,                 0.0 ,                 0.0 ,        0.0 ,0.0                    ,            0.0 ,            0.0 ,            0.0 ,              0.0 ,                   0.0 ,  0.0 ,0.0 ,  63.0526890076239   ,-19.13493555082592 ,0.0 ,-150.20647096360102 ,-301.8961131095082  ,-0.9660051654729485     ,-150.84806452398357 ,          0.0 ,          0.0 ,-149.69559048054901 ,-302.40699445125637 ,-150.84806452398357 ,-602.9506491411203  , 87.8937275420447    ,200.98354996185654  ,152.23640201469016   ,-195.62452991762592   ,-347.3141746533202  ,-0.9660051654729485     ,-196.26612436533654 ,          0.0 ,          0.0 ,-195.1136501735405   ,-347.8250543585413  ,-196.26612436533654 ,-739.204823850142   , 87.8937275420447    ,246.4016094143192    ,152.23640201469016   ,-2.1993138581648397e-07 ,-1.3757231431372854e-05 ,-8.025748206091332e-07  ,      0.0 ,      0.0 ,      0.0 ,9.084547298373262e-07   ,-1.488561759416882e-05  ,      0.0 ,-1.397716300294931e-05  ,9.053272662137981e-06  ,0.5732550085034905   ,0.2946648442233249      ,-0.005997995722761869   ,-0.0033391805167947105  ,0.006388475128528773   ,-3.1676430553497203    ,0.0 ,-3.973368943820623    ,-23.19387943808092      ,        0.0 ,        0.0 , 0.0
 0.0 ,0.0 ,           0.0 ,            0.0 ,            0.0 ,            0.0 ,              0.0 ,                   0.0 ,1377.0 ,103.5156 ,0.0       ,           0.0 ,           0.0 ,       0.0 ,159.7854       ,-15.97854   ,-2.220446e-16    ,-2.220446e-16    ,                 0.0 ,             0.0 ,             0.0 ,                 0.0 ,                 0.0 ,        0.0 ,0.0                    ,            0.0 ,            0.0 ,            0.0 ,              0.0 ,                   0.0 ,  0.0 ,0.0 ,  63.0526890076239   ,-19.13493555082592 ,0.0 ,-150.20647096360102 ,-301.8961131095082  ,-0.9660051654729485     ,-150.84806452398357 ,          0.0 ,          0.0 ,-149.69559048054901 ,-302.40699445125637 ,-150.84806452398357 ,-602.9506491411203  , 87.8937275420447    ,200.98354996185654  ,152.23640201469016   ,-195.62452991762592   ,-347.3141746533202  ,-0.9660051654729485     ,-196.26612436533654 ,          0.0 ,          0.0 ,-195.1136501735405   ,-347.8250543585413  ,-196.26612436533654 ,-739.204823850142   , 87.8937275420447    ,246.4016094143192    ,152.23640201469016   ,-2.1993138581648397e-07 ,-1.3757231431372854e-05 ,-8.025748206091332e-07  ,      0.0 ,      0.0 ,      0.0 ,9.084547298373262e-07   ,-1.488561759416882e-05  ,      0.0 ,-1.397716300294931e-05  ,9.053272662137981e-06  ,0.5732550085034905   ,0.2946648442233249      ,-0.005997995722761869   ,-0.0033391805167947105  ,0.006388475128528773   ,-3.1676430553497203    ,0.0 ,-3.973368943820623    ,-23.19387943808092      ,        0.0 ,        0.0 , 0.0
 0.0 ,0.0 ,           0.0 ,            0.0 ,            0.0 ,            0.0 ,              0.0 ,                   0.0 ,1378.0 ,101.5625 ,0.0       ,           0.0 ,           0.0 ,       0.0 ,167.3848       ,-16.73848   ,7.771561e-16     ,-4.440892e-16    ,                 0.0 ,             0.0 ,             0.0 ,                 0.0 ,                 0.0 ,        0.0 ,0.0                    ,            0.0 ,            0.0 ,            0.0 ,              0.0 ,                   0.0 ,  0.0 ,0.0 ,  63.0526890076239   ,-19.13493555082592 ,0.0 ,-150.20647096360102 ,-301.8961131095082  ,-0.9660051654729485     ,-150.84806452398357 ,          0.0 ,          0.0 ,-149.69559048054901 ,-302.40699445125637 ,-150.84806452398357 ,-602.9506491411203  , 87.8937275420447    ,200.98354996185654  ,152.23640201469016   ,-195.62452991762592   ,-347.3141746533202  ,-0.9660051654729485     ,-196.26612436533654 ,          0.0 ,          0.0 ,-195.1136501735405   ,-347.8250543585413  ,-196.26612436533654 ,-739.204823850142   , 87.8937275420447    ,246.4016094143192    ,152.23640201469016   ,-2.1993138581648397e-07 ,-1.3757231431372854e-05 ,-8.025748206091332e-07  ,      0.0 ,      0.0 ,      0.0 ,9.084547298373262e-07   ,-1.488561759416882e-05  ,      0.0 ,-1.397716300294931e-05  ,9.053272662137981e-06  ,0.5732550085034905   ,0.2946648442233249      ,-0.005997995722761869   ,-0.0033391805167947105  ,0.006388475128528773   ,-3.1676430553497203    ,0.0 ,-3.973368943820623    ,-23.19387943808092      ,        0.0 ,        0.0 , 0.0
 0.0 ,0.0 ,           0.0 ,            0.0 ,            0.0 ,            0.0 ,              0.0 ,                   0.0 ,1379.0 ,99.60938 ,0.0       ,           0.0 ,           0.0 ,       0.0 ,172.9998       ,-17.29998   ,5.551115e-17     ,1.110223e-15     ,                 0.0 ,             0.0 ,             0.0 ,                 0.0 ,                 0.0 ,        0.0 ,0.0                    ,            0.0 ,            0.0 ,            0.0 ,              0.0 ,                   0.0 ,  0.0 ,0.0 ,  63.0526890076239   ,-19.13493555082592 ,0.0 ,-150.20647096360102 ,-301.8961131095082  ,-0.9660051654729485     ,-150.84806452398357 ,          0.0 ,          0.0 ,-149.69559048054901 ,-302.40699445125637 ,-150.84806452398357 ,-602.9506491411203  , 87.8937275420447    ,200.98354996185654  ,152.23640201469016   ,-195.62452991762592   ,-347.3141746533202  ,-0.9660051654729485     ,-196.26612436533654 ,          0.0 ,          0.0 ,-195.1136501735405   ,-347.8250543585413  ,-196.26612436533654 ,-739.204823850142   , 87.8937275420447    ,246.4016094143192    ,152.23640201469016   ,-2.1993138581648397e-07 ,-1.3757231431372854e-05 ,-8.025748206091332e-07  ,      0.0 ,      0.0 ,      0.0 ,9.084547298373262e-07   ,-1.488561759416882e-05  ,      0.0 ,-1.397716300294931e-05  ,9.053272662137981e-06  ,0.5732550085034905   ,0.2946648442233249      ,-0.005997995722761869   ,-0.0033391805167947105  ,0.006388475128528773   ,-3.1676430553497203    ,0.0 ,-3.973368943820623    ,-23.19387943808092      ,        0.0 ,        0.0 , 0.0
 0.0 ,0.0 ,           0.0 ,            0.0 ,            0.0 ,            0.0 ,              0.0 ,                   0.0 ,1380.0 ,97.65625 ,0.0       ,           0.0 ,           0.0 ,       0.0 ,177.0303       ,-17.70303   ,-1.387779e-15    ,1.332268e-15     ,                 0.0 ,             0.0 ,             0.0 ,                 0.0 ,                 0.0 ,        0.0 ,0.0                    ,            0.0 ,            0.0 ,            0.0 ,              0.0 ,                   0.0 ,  0.0 ,0.0 ,  63.0526890076239   ,-19.13493555082592 ,0.0 ,-150.20647096360102 ,-301.8961131095082  ,-0.9660051654729485     ,-150.84806452398357 ,          0.0 ,          0.0 ,-149.69559048054901 ,-302.40699445125637 ,-150.84806452398357 ,-602.9506491411203  , 87.8937275420447    ,200.98354996185654  ,152.23640201469016   ,-195.62452991762592   ,-347.3141746533202  ,-0.9660051654729485     ,-196.26612436533654 ,          0.0 ,          0.0 ,-195.1136501735405   ,-347.8250543585413  ,-196.26612436533654 ,-739.204823850142   , 87.8937275420447    ,246.4016094143192    ,152.23640201469016   ,-2.1993138581648397e-07 ,-1.3757231431372854e-05 ,-8.025748206091332e-07  ,      0.0 ,      0.0 ,      0.0 ,9.084547298373262e-07   ,-1.488561759416882e-05  ,      0.0 ,-1.397716300294931e-05  ,9.053272662137981e-06  ,0.5732550085034905   ,0.2946648442233249      ,-0.005997995722761869   ,-0.0033391805167947105  ,0.006388475128528773   ,-3.1676430553497203    ,0.0 ,-3.973368943820623    ,-23.19387943808092      ,        0.0 ,        0.0 , 0.0
 0.0 ,0.0 ,           0.0 ,            0.0 ,            0.0 ,            0.0 ,              0.0 ,                   0.0 ,1381.0 ,95.70313 ,0.0       ,           0.0 ,           0.0 ,       0.0 ,179.8814       ,-17.98814   ,1.498801e-15     ,-1.554312e-15    ,                 0.0 ,             0.0 ,             0.0 ,                 0.0 ,                 0.0 ,        0.0 ,0.0                    ,            0.0 ,            0.0 ,            0.0 ,              0.0 ,                   0.0 ,  0.0 ,0.0 ,  63.0526890076239   ,-19.13493555082592 ,0.0 ,-150.20647096360102 ,-301.8961131095082  ,-0.9660051654729485     ,-150.84806452398357 ,          0.0 ,          0.0 ,-149.69559048054901 ,-302.40699445125637 ,-150.84806452398357 ,-602.9506491411203  , 87.8937275420447    ,200.98354996185654  ,152.23640201469016   ,-195.62452991762592   ,-347.3141746533202  ,-0.9660051654729485     ,-196.26612436533654 ,          0.0 ,          0.0 ,-195.1136501735405   ,-347.8250543585413  ,-196.26612436533654 ,-739.204823850142   , 87.8937275420447    ,246.4016094143192    ,152.23640201469016   ,-2.1993138581648397e-07 ,-1.3757231431372854e-05 ,-8.025748206091332e-07  ,      0.0 ,      0.0 ,      0.0 ,9.084547298373262e-07   ,-1.488561759416882e-05  ,      0.0 ,-1.397716300294931e-05  ,9.053272662137981e-06  ,0.5732550085034905   ,0.2946648442233249      ,-0.005997995722761869   ,-0.0033391805167947105  ,0.006388475128528773   ,-3.1676430553497203    ,0.0 ,-3.973368943820623    ,-23.19387943808092      ,        0.0 ,        0.0 , 0.0
 0.0 ,0.0 ,           0.0 ,            0.0 ,            0.0 ,            0.0 ,              0.0 ,                   0.0 ,1382.0 ,93.75    ,0.0       ,           0.0 ,           0.0 ,       0.0 ,181.8909       ,-18.18909   ,-1.221245e-15    ,-6.661338e-16    ,                 0.0 ,             0.0 ,             0.0 ,                 0.0 ,                 0.0 ,        0.0 ,0.0                    ,            0.0 ,            0.0 ,            0.0 ,              0.0 ,                   0.0 ,  0.0 ,0.0 ,  63.0526890076239   ,-19.13493555082592 ,0.0 ,-150.20647096360102 ,-301.8961131095082  ,-0.9660051654729485     ,-150.84806452398357 ,          0.0 ,          0.0 ,-149.69559048054901 ,-302.40699445125637 ,-150.84806452398357 ,-602.9506491411203  , 87.8937275420447    ,200.98354996185654  ,152.23640201469016   ,-195.62452991762592   ,-347.3141746533202  ,-0.9660051654729485     ,-196.26612436533654 ,          0.0 ,          0.0 ,-195.1136501735405   ,-347.8250543585413  ,-196.26612436533654 ,-739.204823850142   , 87.8937275420447    ,246.4016094143192    ,152.23640201469016   ,-2.1993138581648397e-07 ,-1.3757231431372854e-05 ,-8.025748206091332e-07  ,      0.0 ,      0.0 ,      0.0 ,9.084547298373262e-07   ,-1.488561759416882e-05  ,      0.0 ,-1.397716300294931e-05  ,9.053272662137981e-06  ,0.5732550085034905   ,0.2946648442233249      ,-0.005997995722761869   ,-0.0033391805167947105  ,0.006388475128528773   ,-3.1676430553497203    ,0.0 ,-3.973368943820623    ,-23.19387943808092      ,        0.0 ,        0.0 , 0.0
 0.0 ,0.0 ,           0.0 ,            0.0 ,            0.0 ,            0.0 ,              0.0 ,                   0.0 ,1383.0 ,91.79688 ,0.0       ,           0.0 ,           0.0 ,       0.0 ,183.2138       ,-18.32138   ,-1.44329e-15     ,1.44329e-15      ,                 0.0 ,             0.0 ,             0.0 ,                 0.0 ,                 0.0 ,        0.0 ,0.0                    ,            0.0 ,            0.0 ,            0.0 ,              0.0 ,                   0.0 ,  0.0 ,0.0 ,  63.0526890076239   ,-19.13493555082592 ,0.0 ,-150.20647096360102 ,-301.8961131095082  ,-0.9660051654729485     ,-150.84806452398357 ,          0.0 ,          0.0 ,-149.69559048054901 ,-302.40699445125637 ,-150.84806452398357 ,-602.9506491411203  , 87.8937275420447    ,200.98354996185654  ,152.23640201469016   ,-195.62452991762592   ,-347.3141746533202  ,-0.9660051654729485     ,-196.26612436533654 ,          0.0 ,          0.0 ,-195.1136501735405   ,-347.8250543585413  ,-196.26612436533654 ,-739.204823850142   , 87.8937275420447    ,246.4016094143192    ,152.23640201469016   ,-2.1993138581648397e-07 ,-1.3757231431372854e-05 ,-8.025748206091332e-07  ,      0.0 ,      0.0 ,      0.0 ,9.084547298373262e-07   ,-1.488561759416882e-05  ,      0.0 ,-1.397716300294931e-05  ,9.053272662137981e-06  ,0.5732550085034905   ,0.2946648442233249      ,-0.005997995722761869   ,-0.0033391805167947105  ,0.006388475128528773   ,-3.1676430553497203    ,0.0 ,-3.973368943820623    ,-23.19387943808092      ,        0.0 ,        0.0 , 0.0
 0.0 ,0.0 ,           0.0 ,            0.0 ,            0.0 ,            0.0 ,              0.0 ,                   0.0 ,1384.0 ,89.84375 ,0.0       ,           0.0 ,           0.0 ,       0.0 ,184.1221       ,-18.41221   ,7.771561e-16     ,1.221245e-15     ,                 0.0 ,             0.0 ,             0.0 ,                 0.0 ,                 0.0 ,        0.0 ,0.0                    ,            0.0 ,            0.0 ,            0.0 ,              0.0 ,                   0.0 ,  0.0 ,0.0 ,  63.0526890076239   ,-19.13493555082592 ,0.0 ,-150.20647096360102 ,-301.8961131095082  ,-0.9660051654729485     ,-150.84806452398357 ,          0.0 ,          0.0 ,-149.69559048054901 ,-302.40699445125637 ,-150.84806452398357 ,-602.9506491411203  , 87.8937275420447    ,200.98354996185654  ,152.23640201469016   ,-195.62452991762592   ,-347.3141746533202  ,-0.9660051654729485     ,-196.26612436533654 ,          0.0 ,          0.0 ,-195.1136501735405   ,-347.8250543585413  ,-196.26612436533654 ,-739.204823850142   , 87.8937275420447    ,246.4016094143192    ,152.23640201469016   ,-2.1993138581648397e-07 ,-1.3757231431372854e-05 ,-8.025748206091332e-07  ,      0.0 ,      0.0 ,      0.0 ,9.084547298373262e-07   ,-1.488561759416882e-05  ,      0.0 ,-1.397716300294931e-05  ,9.053272662137981e-06  ,0.5732550085034905   ,0.2946648442233249      ,-0.005997995722761869   ,-0.0033391805167947105  ,0.006388475128528773   ,-3.1676430553497203    ,0.0 ,-3.973368943820623    ,-23.19387943808092      ,        0.0 ,        0.0 , 0.0
 0.0 ,0.0 ,           0.0 ,            0.0 ,            0.0 ,            0.0 ,              0.0 ,                   0.0 ,1385.0 ,87.89063 ,0.0       ,           0.0 ,           0.0 ,       0.0 ,184.7857       ,-18.47857   ,0.0              ,-5.551115e-16    ,                 0.0 ,             0.0 ,             0.0 ,                 0.0 ,                 0.0 ,        0.0 ,0.0                    ,            0.0 ,            0.0 ,            0.0 ,              0.0 ,                   0.0 ,  0.0 ,0.0 ,  63.0526890076239   ,-19.13493555082592 ,0.0 ,-150.20647096360102 ,-301.8961131095082  ,-0.9660051654729485     ,-150.84806452398357 ,          0.0 ,          0.0 ,-149.69559048054901 ,-302.40699445125637 ,-150.84806452398357 ,-602.9506491411203  , 87.8937275420447    ,200.98354996185654  ,152.23640201469016   ,-195.62452991762592   ,-347.3141746533202  ,-0.9660051654729485     ,-196.26612436533654 ,          0.0 ,          0.0 ,-195.1136501735405   ,-347.8250543585413  ,-196.26612436533654 ,-739.204823850142   , 87.8937275420447    ,246.4016094143192    ,152.23640201469016   ,-2.1993138581648397e-07 ,-1.3757231431372854e-05 ,-8.025748206091332e-07  ,      0.0 ,      0.0 ,      0.0 ,9.084547298373262e-07   ,-1.488561759416882e-05  ,      0.0 ,-1.397716300294931e-05  ,9.053272662137981e-06  ,0.5732550085034905   ,0.2946648442233249      ,-0.005997995722761869   ,-0.0033391805167947105  ,0.006388475128528773   ,-3.1676430553497203    ,0.0 ,-3.973368943820623    ,-23.19387943808092      ,        0.0 ,        0.0 , 0.0
 0.0 ,0.0 ,           0.0 ,            0.0 ,            0.0 ,            0.0 ,              0.0 ,                   0.0 ,1386.0 ,85.9375  ,0.0       ,           0.0 ,           0.0 ,       0.0 ,185.2362       ,-18.52362   ,-4.996004e-16    ,1.110223e-15     ,                 0.0 ,             0.0 ,             0.0 ,                 0.0 ,                 0.0 ,        0.0 ,0.0                    ,            0.0 ,            0.0 ,            0.0 ,              0.0 ,                   0.0 ,  0.0 ,0.0 ,  63.0526890076239   ,-19.13493555082592 ,0.0 ,-150.20647096360102 ,-301.8961131095082  ,-0.9660051654729485     ,-150.84806452398357 ,          0.0 ,          0.0 ,-149.69559048054901 ,-302.40699445125637 ,-150.84806452398357 ,-602.9506491411203  , 87.8937275420447    ,200.98354996185654  ,152.23640201469016   ,-195.62452991762592   ,-347.3141746533202  ,-0.9660051654729485     ,-196.26612436533654 ,          0.0 ,          0.0 ,-195.1136501735405   ,-347.8250543585413  ,-196.26612436533654 ,-739.204823850142   , 87.8937275420447    ,246.4016094143192    ,152.23640201469016   ,-2.1993138581648397e-07 ,-1.3757231431372854e-05 ,-8.025748206091332e-07  ,      0.0 ,      0.0 ,      0.0 ,9.084547298373262e-07   ,-1.488561759416882e-05  ,      0.0 ,-1.397716300294931e-05  ,9.053272662137981e-06  ,0.5732550085034905   ,0.2946648442233249      ,-0.005997995722761869   ,-0.0033391805167947105  ,0.006388475128528773   ,-3.1676430553497203    ,0.0 ,-3.973368943820623    ,-23.19387943808092      ,        0.0 ,        0.0 , 0.0
 0.0 ,0.0 ,           0.0 ,            0.0 ,            0.0 ,            0.0 ,              0.0 ,                   0.0 ,1387.0 ,83.98438 ,0.0       ,           0.0 ,           0.0 ,       0.0 ,185.5513       ,-18.55513   ,0.0              ,7.771561e-16     ,                 0.0 ,             0.0 ,             0.0 ,                 0.0 ,                 0.0 ,        0.0 ,0.0                    ,            0.0 ,            0.0 ,            0.0 ,              0.0 ,                   0.0 ,  0.0 ,0.0 ,  63.0526890076239   ,-19.13493555082592 ,0.0 ,-150.20647096360102 ,-301.8961131095082  ,-0.9660051654729485     ,-150.84806452398357 ,          0.0 ,          0.0 ,-149.69559048054901 ,-302.40699445125637 ,-150.84806452398357 ,-602.9506491411203  , 87.8937275420447    ,200.98354996185654  ,152.23640201469016   ,-195.62452991762592   ,-347.3141746533202  ,-0.9660051654729485     ,-196.26612436533654 ,          0.0 ,          0.0 ,-195.1136501735405   ,-347.8250543585413  ,-196.26612436533654 ,-739.204823850142   , 87.8937275420447    ,246.4016094143192    ,152.23640201469016   ,-2.1993138581648397e-07 ,-1.3757231431372854e-05 ,-8.025748206091332e-07  ,      0.0 ,      0.0 ,      0.0 ,9.084547298373262e-07   ,-1.488561759416882e-05  ,      0.0 ,-1.397716300294931e-05  ,9.053272662137981e-06  ,0.5732550085034905   ,0.2946648442233249      ,-0.005997995722761869   ,-0.0033391805167947105  ,0.006388475128528773   ,-3.1676430553497203    ,0.0 ,-3.973368943820623    ,-23.19387943808092      ,        0.0 ,        0.0 , 0.0
 0.0 ,0.0 ,           0.0 ,            0.0 ,            0.0 ,            0.0 ,              0.0 ,                   0.0 ,1388.0 ,82.03125 ,0.0       ,           0.0 ,           0.0 ,       0.0 ,185.7744       ,-18.57744   ,-2.220446e-16    ,1.221245e-15     ,                 0.0 ,             0.0 ,             0.0 ,                 0.0 ,                 0.0 ,        0.0 ,0.0                    ,            0.0 ,            0.0 ,            0.0 ,              0.0 ,                   0.0 ,  0.0 ,0.0 ,  63.0526890076239   ,-19.13493555082592 ,0.0 ,-150.20647096360102 ,-301.8961131095082  ,-0.9660051654729485     ,-150.84806452398357 ,          0.0 ,          0.0 ,-149.69559048054901 ,-302.40699445125637 ,-150.84806452398357 ,-602.9506491411203  , 87.8937275420447    ,200.98354996185654  ,152.23640201469016   ,-195.62452991762592   ,-347.3141746533202  ,-0.9660051654729485     ,-196.26612436533654 ,          0.0 ,          0.0 ,-195.1136501735405   ,-347.8250543585413  ,-196.26612436533654 ,-739.204823850142   , 87.8937275420447    ,246.4016094143192    ,152.23640201469016   ,-2.1993138581648397e-07 ,-1.3757231431372854e-05 ,-8.025748206091332e-07  ,      0.0 ,      0.0 ,      0.0 ,9.084547298373262e-07   ,-1.488561759416882e-05  ,      0.0 ,-1.397716300294931e-05  ,9.053272662137981e-06  ,0.5732550085034905   ,0.2946648442233249      ,-0.005997995722761869   ,-0.0033391805167947105  ,0.006388475128528773   ,-3.1676430553497203    ,0.0 ,-3.973368943820623    ,-23.19387943808092      ,        0.0 ,        0.0 , 0.0
 0.0 ,0.0 ,           0.0 ,            0.0 ,            0.0 ,            0.0 ,              0.0 ,                   0.0 ,1389.0 ,80.07813 ,0.0       ,           0.0 ,           0.0 ,       0.0 ,185.9377       ,-18.59377   ,-2.220446e-16    ,-4.440892e-16    ,                 0.0 ,             0.0 ,             0.0 ,                 0.0 ,                 0.0 ,        0.0 ,0.0                    ,            0.0 ,            0.0 ,            0.0 ,              0.0 ,                   0.0 ,  0.0 ,0.0 ,  63.0526890076239   ,-19.13493555082592 ,0.0 ,-150.20647096360102 ,-301.8961131095082  ,-0.9660051654729485     ,-150.84806452398357 ,          0.0 ,          0.0 ,-149.69559048054901 ,-302.40699445125637 ,-150.84806452398357 ,-602.9506491411203  , 87.8937275420447    ,200.98354996185654  ,152.23640201469016   ,-195.62452991762592   ,-347.3141746533202  ,-0.9660051654729485     ,-196.26612436533654 ,          0.0 ,          0.0 ,-195.1136501735405   ,-347.8250543585413  ,-196.26612436533654 ,-739.204823850142   , 87.8937275420447    ,246.4016094143192    ,152.23640201469016   ,-2.1993138581648397e-07 ,-1.3757231431372854e-05 ,-8.025748206091332e-07  ,      0.0 ,      0.0 ,      0.0 ,9.084547298373262e-07   ,-1.488561759416882e-05  ,      0.0 ,-1.397716300294931e-05  ,9.053272662137981e-06  ,0.5732550085034905   ,0.2946648442233249      ,-0.005997995722761869   ,-0.0033391805167947105  ,0.006388475128528773   ,-3.1676430553497203    ,0.0 ,-3.973368943820623    ,-23.19387943808092      ,        0.0 ,        0.0 , 0.0
 0.0 ,0.0 ,           0.0 ,            0.0 ,            0.0 ,            0.0 ,              0.0 ,                   0.0 ,1390.0 ,78.125   ,0.0       ,           0.0 ,           0.0 ,       0.0 ,186.0617       ,-18.60617   ,8.881784e-16     ,1.44329e-15      ,                 0.0 ,             0.0 ,             0.0 ,                 0.0 ,                 0.0 ,        0.0 ,0.0                    ,            0.0 ,            0.0 ,            0.0 ,              0.0 ,                   0.0 ,  0.0 ,0.0 ,  63.0526890076239   ,-19.13493555082592 ,0.0 ,-150.20647096360102 ,-301.8961131095082  ,-0.9660051654729485     ,-150.84806452398357 ,          0.0 ,          0.0 ,-149.69559048054901 ,-302.40699445125637 ,-150.84806452398357 ,-602.9506491411203  , 87.8937275420447    ,200.98354996185654  ,152.23640201469016   ,-195.62452991762592   ,-347.3141746533202  ,-0.9660051654729485     ,-196.26612436533654 ,          0.0 ,          0.0 ,-195.1136501735405   ,-347.8250543585413  ,-196.26612436533654 ,-739.204823850142   , 87.8937275420447    ,246.4016094143192    ,152.23640201469016   ,-2.1993138581648397e-07 ,-1.3757231431372854e-05 ,-8.025748206091332e-07  ,      0.0 ,      0.0 ,      0.0 ,9.084547298373262e-07   ,-1.488561759416882e-05  ,      0.0 ,-1.397716300294931e-05  ,9.053272662137981e-06  ,0.5732550085034905   ,0.2946648442233249      ,-0.005997995722761869   ,-0.0033391805167947105  ,0.006388475128528773   ,-3.1676430553497203    ,0.0 ,-3.973368943820623    ,-23.19387943808092      ,        0.0 ,        0.0 , 0.0
 0.0 ,0.0 ,           0.0 ,            0.0 ,            0.0 ,            0.0 ,              0.0 ,                   0.0 ,1391.0 ,76.17188 ,0.0       ,           0.0 ,           0.0 ,       0.0 ,186.1587       ,-18.61587   ,-2.220446e-15    ,8.881784e-16     ,                 0.0 ,             0.0 ,             0.0 ,                 0.0 ,                 0.0 ,        0.0 ,0.0                    ,            0.0 ,            0.0 ,            0.0 ,              0.0 ,                   0.0 ,  0.0 ,0.0 ,  63.0526890076239   ,-19.13493555082592 ,0.0 ,-150.20647096360102 ,-301.8961131095082  ,-0.9660051654729485     ,-150.84806452398357 ,          0.0 ,          0.0 ,-149.69559048054901 ,-302.40699445125637 ,-150.84806452398357 ,-602.9506491411203  , 87.8937275420447    ,200.98354996185654  ,152.23640201469016   ,-195.62452991762592   ,-347.3141746533202  ,-0.9660051654729485     ,-196.26612436533654 ,          0.0 ,          0.0 ,-195.1136501735405   ,-347.8250543585413  ,-196.26612436533654 ,-739.204823850142   , 87.8937275420447    ,246.4016094143192    ,152.23640201469016   ,-2.1993138581648397e-07 ,-1.3757231431372854e-05 ,-8.025748206091332e-07  ,      0.0 ,      0.0 ,      0.0 ,9.084547298373262e-07   ,-1.488561759416882e-05  ,      0.0 ,-1.397716300294931e-05  ,9.053272662137981e-06  ,0.5732550085034905   ,0.2946648442233249      ,-0.005997995722761869   ,-0.0033391805167947105  ,0.006388475128528773   ,-3.1676430553497203    ,0.0 ,-3.973368943820623    ,-23.19387943808092      ,        0.0 ,        0.0 , 0.0
 0.0 ,0.0 ,           0.0 ,            0.0 ,            0.0 ,            0.0 ,              0.0 ,                   0.0 ,1392.0 ,74.21875 ,0.0       ,           0.0 ,           0.0 ,       0.0 ,186.2372       ,-18.62372   ,-2.442491e-15    ,1.110223e-15     ,                 0.0 ,             0.0 ,             0.0 ,                 0.0 ,                 0.0 ,        0.0 ,0.0                    ,            0.0 ,            0.0 ,            0.0 ,              0.0 ,                   0.0 ,  0.0 ,0.0 ,  63.0526890076239   ,-19.13493555082592 ,0.0 ,-150.20647096360102 ,-301.8961131095082  ,-0.9660051654729485     ,-150.84806452398357 ,          0.0 ,          0.0 ,-149.69559048054901 ,-302.40699445125637 ,-150.84806452398357 ,-602.9506491411203  , 87.8937275420447    ,200.98354996185654  ,152.23640201469016   ,-195.62452991762592   ,-347.3141746533202  ,-0.9660051654729485     ,-196.26612436533654 ,          0.0 ,          0.0 ,-195.1136501735405   ,-347.8250543585413  ,-196.26612436533654 ,-739.204823850142   , 87.8937275420447    ,246.4016094143192    ,152.23640201469016   ,-2.1993138581648397e-07 ,-1.3757231431372854e-05 ,-8.025748206091332e-07  ,      0.0 ,      0.0 ,      0.0 ,9.084547298373262e-07   ,-1.488561759416882e-05  ,      0.0 ,-1.397716300294931e-05  ,9.053272662137981e-06  ,0.5732550085034905   ,0.2946648442233249      ,-0.005997995722761869   ,-0.0033391805167947105  ,0.006388475128528773   ,-3.1676430553497203    ,0.0 ,-3.973368943820623    ,-23.19387943808092      ,        0.0 ,        0.0 , 0.0
 0.0 ,0.0 ,           0.0 ,            0.0 ,            0.0 ,            0.0 ,              0.0 ,                   0.0 ,1393.0 ,72.26563 ,0.0       ,           0.0 ,           0.0 ,       0.0 ,186.3031       ,-18.63031   ,1.776357e-15     ,9.992007e-16     ,                 0.0 ,             0.0 ,             0.0 ,                 0.0 ,                 0.0 ,        0.0 ,0.0                    ,            0.0 ,            0.0 ,            0.0 ,              0.0 ,                   0.0 ,  0.0 ,0.0 ,  63.0526890076239   ,-19.13493555082592 ,0.0 ,-150.20647096360102 ,-301.8961131095082  ,-0.9660051654729485     ,-150.84806452398357 ,          0.0 ,          0.0 ,-149.69559048054901 ,-302.40699445125637 ,-150.84806452398357 ,-602.9506491411203  , 87.8937275420447    ,200.98354996185654  ,152.23640201469016   ,-195.62452991762592   ,-347.3141746533202  ,-0.9660051654729485     ,-196.26612436533654 ,          0.0 ,          0.0 ,-195.1136501735405   ,-347.8250543585413  ,-196.26612436533654 ,-739.204823850142   , 87.8937275420447    ,246.4016094143192    ,152.23640201469016   ,-2.1993138581648397e-07 ,-1.3757231431372854e-05 ,-8.025748206091332e-07  ,      0.0 ,      0.0 ,      0.0 ,9.084547298373262e-07   ,-1.488561759416882e-05  ,      0.0 ,-1.397716300294931e-05  ,9.053272662137981e-06  ,0.5732550085034905   ,0.2946648442233249      ,-0.005997995722761869   ,-0.0033391805167947105  ,0.006388475128528773   ,-3.1676430553497203    ,0.0 ,-3.973368943820623    ,-23.19387943808092      ,        0.0 ,        0.0 , 0.0
 0.0 ,0.0 ,           0.0 ,            0.0 ,            0.0 ,            0.0 ,              0.0 ,                   0.0 ,1394.0 ,70.3125  ,0.0       ,           0.0 ,           0.0 ,       0.0 ,186.3603       ,-18.63603   ,2.664535e-15     ,6.661338e-16     ,                 0.0 ,             0.0 ,             0.0 ,                 0.0 ,                 0.0 ,        0.0 ,0.0                    ,            0.0 ,            0.0 ,            0.0 ,              0.0 ,                   0.0 ,  0.0 ,0.0 ,  63.0526890076239   ,-19.13493555082592 ,0.0 ,-150.20647096360102 ,-301.8961131095082  ,-0.9660051654729485     ,-150.84806452398357 ,          0.0 ,          0.0 ,-149.69559048054901 ,-302.40699445125637 ,-150.84806452398357 ,-602.9506491411203  , 87.8937275420447    ,200.98354996185654  ,152.23640201469016   ,-195.62452991762592   ,-347.3141746533202  ,-0.9660051654729485     ,-196.26612436533654 ,          0.0 ,          0.0 ,-195.1136501735405   ,-347.8250543585413  ,-196.26612436533654 ,-739.204823850142   , 87.8937275420447    ,246.4016094143192    ,152.23640201469016   ,-2.1993138581648397e-07 ,-1.3757231431372854e-05 ,-8.025748206091332e-07  ,      0.0 ,      0.0 ,      0.0 ,9.084547298373262e-07   ,-1.488561759416882e-05  ,      0.0 ,-1.397716300294931e-05  ,9.053272662137981e-06  ,0.5732550085034905   ,0.2946648442233249      ,-0.005997995722761869   ,-0.0033391805167947105  ,0.006388475128528773   ,-3.1676430553497203    ,0.0 ,-3.973368943820623    ,-23.19387943808092      ,        0.0 ,        0.0 , 0.0
 0.0 ,0.0 ,           0.0 ,            0.0 ,            0.0 ,            0.0 ,              0.0 ,                   0.0 ,1395.0 ,68.35938 ,0.0       ,           0.0 ,           0.0 ,       0.0 ,186.4115       ,-18.64115   ,4.940492e-15     ,-4.440892e-16    ,                 0.0 ,             0.0 ,             0.0 ,                 0.0 ,                 0.0 ,        0.0 ,0.0                    ,            0.0 ,            0.0 ,            0.0 ,              0.0 ,                   0.0 ,  0.0 ,0.0 ,  63.0526890076239   ,-19.13493555082592 ,0.0 ,-150.20647096360102 ,-301.8961131095082  ,-0.9660051654729485     ,-150.84806452398357 ,          0.0 ,          0.0 ,-149.69559048054901 ,-302.40699445125637 ,-150.84806452398357 ,-602.9506491411203  , 87.8937275420447    ,200.98354996185654  ,152.23640201469016   ,-195.62452991762592   ,-347.3141746533202  ,-0.9660051654729485     ,-196.26612436533654 ,          0.0 ,          0.0 ,-195.1136501735405   ,-347.8250543585413  ,-196.26612436533654 ,-739.204823850142   , 87.8937275420447    ,246.4016094143192    ,152.23640201469016   ,-2.1993138581648397e-07 ,-1.3757231431372854e-05 ,-8.025748206091332e-07  ,      0.0 ,      0.0 ,      0.0 ,9.084547298373262e-07   ,-1.488561759416882e-05  ,      0.0 ,-1.397716300294931e-05  ,9.053272662137981e-06  ,0.5732550085034905   ,0.2946648442233249      ,-0.005997995722761869   ,-0.0033391805167947105  ,0.006388475128528773   ,-3.1676430553497203    ,0.0 ,-3.973368943820623    ,-23.19387943808092      ,        0.0 ,        0.0 , 0.0
 0.0 ,0.0 ,           0.0 ,            0.0 ,            0.0 ,            0.0 ,              0.0 ,                   0.0 ,1396.0 ,66.40625 ,0.0       ,           0.0 ,           0.0 ,       0.0 ,186.4586       ,-18.64586   ,-3.663736e-15    ,-8.881784e-16    ,                 0.0 ,             0.0 ,             0.0 ,                 0.0 ,                 0.0 ,        0.0 ,0.0                    ,            0.0 ,            0.0 ,            0.0 ,              0.0 ,                   0.0 ,  0.0 ,0.0 ,  63.0526890076239   ,-19.13493555082592 ,0.0 ,-150.20647096360102 ,-301.8961131095082  ,-0.9660051654729485     ,-150.84806452398357 ,          0.0 ,          0.0 ,-149.69559048054901 ,-302.40699445125637 ,-150.84806452398357 ,-602.9506491411203  , 87.8937275420447    ,200.98354996185654  ,152.23640201469016   ,-195.62452991762592   ,-347.3141746533202  ,-0.9660051654729485     ,-196.26612436533654 ,          0.0 ,          0.0 ,-195.1136501735405   ,-347.8250543585413  ,-196.26612436533654 ,-739.204823850142   , 87.8937275420447    ,246.4016094143192    ,152.23640201469016   ,-2.1993138581648397e-07 ,-1.3757231431372854e-05 ,-8.025748206091332e-07  ,      0.0 ,      0.0 ,      0.0 ,9.084547298373262e-07   ,-1.488561759416882e-05  ,      0.0 ,-1.397716300294931e-05  ,9.053272662137981e-06  ,0.5732550085034905   ,0.2946648442233249      ,-0.005997995722761869   ,-0.0033391805167947105  ,0.006388475128528773   ,-3.1676430553497203    ,0.0 ,-3.973368943820623    ,-23.19387943808092      ,        0.0 ,        0.0 , 0.0
 0.0 ,0.0 ,           0.0 ,            0.0 ,            0.0 ,            0.0 ,              0.0 ,                   0.0 ,1397.0 ,64.45313 ,0.0       ,           0.0 ,           0.0 ,       0.0 ,186.5028       ,-18.65028   ,-2.442491e-15    ,1.110223e-15     ,                 0.0 ,             0.0 ,             0.0 ,                 0.0 ,                 0.0 ,        0.0 ,0.0                    ,            0.0 ,            0.0 ,            0.0 ,              0.0 ,                   0.0 ,  0.0 ,0.0 ,  63.0526890076239   ,-19.13493555082592 ,0.0 ,-150.20647096360102 ,-301.8961131095082  ,-0.9660051654729485     ,-150.84806452398357 ,          0.0 ,          0.0 ,-149.69559048054901 ,-302.40699445125637 ,-150.84806452398357 ,-602.9506491411203  , 87.8937275420447    ,200.98354996185654  ,152.23640201469016   ,-195.62452991762592   ,-347.3141746533202  ,-0.9660051654729485     ,-196.26612436533654 ,          0.0 ,          0.0 ,-195.1136501735405   ,-347.8250543585413  ,-196.26612436533654 ,-739.204823850142   , 87.8937275420447    ,246.4016094143192    ,152.23640201469016   ,-2.1993138581648397e-07 ,-1.3757231431372854e-05 ,-8.025748206091332e-07  ,      0.0 ,      0.0 ,      0.0 ,9.084547298373262e-07   ,-1.488561759416882e-05  ,      0.0 ,-1.397716300294931e-05  ,9.053272662137981e-06  ,0.5732550085034905   ,0.2946648442233249      ,-0.005997995722761869   ,-0.0033391805167947105  ,0.006388475128528773   ,-3.1676430553497203    ,0.0 ,-3.973368943820623    ,-23.19387943808092      ,        0.0 ,        0.0 , 0.0
 0.0 ,0.0 ,           0.0 ,            0.0 ,            0.0 ,            0.0 ,              0.0 ,                   0.0 ,1398.0 ,62.5     ,0.0       ,           0.0 ,           0.0 ,       0.0 ,186.545        ,-18.6545    ,0.0              ,0.0              ,                 0.0 ,             0.0 ,             0.0 ,                 0.0 ,                 0.0 ,        0.0 ,0.0                    ,            0.0 ,            0.0 ,            0.0 ,              0.0 ,                   0.0 ,  0.0 ,0.0 ,  63.0526890076239   ,-19.13493555082592 ,0.0 ,-150.20647096360102 ,-301.8961131095082  ,-0.9660051654729485     ,-150.84806452398357 ,          0.0 ,          0.0 ,-149.69559048054901 ,-302.40699445125637 ,-150.84806452398357 ,-602.9506491411203  , 87.8937275420447    ,200.98354996185654  ,152.23640201469016   ,-195.62452991762592   ,-347.3141746533202  ,-0.9660051654729485     ,-196.26612436533654 ,          0.0 ,          0.0 ,-195.1136501735405   ,-347.8250543585413  ,-196.26612436533654 ,-739.204823850142   , 87.8937275420447    ,246.4016094143192    ,152.23640201469016   ,-2.1993138581648397e-07 ,-1.3757231431372854e-05 ,-8.025748206091332e-07  ,      0.0 ,      0.0 ,      0.0 ,9.084547298373262e-07   ,-1.488561759416882e-05  ,      0.0 ,-1.397716300294931e-05  ,9.053272662137981e-06  ,0.5732550085034905   ,0.2946648442233249      ,-0.005997995722761869   ,-0.0033391805167947105  ,0.006388475128528773   ,-3.1676430553497203    ,0.0 ,-3.973368943820623    ,-23.19387943808092      ,        0.0 ,        0.0 , 0.0
 0.0 ,0.0 ,           0.0 ,            0.0 ,            0.0 ,            0.0 ,              0.0 ,                   0.0 ,1399.0 ,60.54688 ,0.0       ,           0.0 ,           0.0 ,       0.0 ,186.5857       ,-18.65857   ,3.108624e-15     ,-1.332268e-15    ,                 0.0 ,             0.0 ,             0.0 ,                 0.0 ,                 0.0 ,        0.0 ,0.0                    ,            0.0 ,            0.0 ,            0.0 ,              0.0 ,                   0.0 ,  0.0 ,0.0 ,  63.0526890076239   ,-19.13493555082592 ,0.0 ,-150.20647096360102 ,-301.8961131095082  ,-0.9660051654729485     ,-150.84806452398357 ,          0.0 ,          0.0 ,-149.69559048054901 ,-302.40699445125637 ,-150.84806452398357 ,-602.9506491411203  , 87.8937275420447    ,200.98354996185654  ,152.23640201469016   ,-195.62452991762592   ,-347.3141746533202  ,-0.9660051654729485     ,-196.26612436533654 ,          0.0 ,          0.0 ,-195.1136501735405   ,-347.8250543585413  ,-196.26612436533654 ,-739.204823850142   , 87.8937275420447    ,246.4016094143192    ,152.23640201469016   ,-2.1993138581648397e-07 ,-1.3757231431372854e-05 ,-8.025748206091332e-07  ,      0.0 ,      0.0 ,      0.0 ,9.084547298373262e-07   ,-1.488561759416882e-05  ,      0.0 ,-1.397716300294931e-05  ,9.053272662137981e-06  ,0.5732550085034905   ,0.2946648442233249      ,-0.005997995722761869   ,-0.0033391805167947105  ,0.006388475128528773   ,-3.1676430553497203    ,0.0 ,-3.973368943820623    ,-23.19387943808092      ,        0.0 ,        0.0 , 0.0
 0.0 ,0.0 ,           0.0 ,            0.0 ,            0.0 ,            0.0 ,              0.0 ,                   0.0 ,1400.0 ,58.59375 ,0.0       ,           0.0 ,           0.0 ,       0.0 ,186.6253       ,-18.66253   ,1.332268e-15     ,6.661338e-16     ,                 0.0 ,             0.0 ,             0.0 ,                 0.0 ,                 0.0 ,        0.0 ,0.0                    ,            0.0 ,            0.0 ,            0.0 ,              0.0 ,                   0.0 ,  0.0 ,0.0 ,  63.0526890076239   ,-19.13493555082592 ,0.0 ,-150.20647096360102 ,-301.8961131095082  ,-0.9660051654729485     ,-150.84806452398357 ,          0.0 ,          0.0 ,-149.69559048054901 ,-302.40699445125637 ,-150.84806452398357 ,-602.9506491411203  , 87.8937275420447    ,200.98354996185654  ,152.23640201469016   ,-195.62452991762592   ,-347.3141746533202  ,-0.9660051654729485     ,-196.26612436533654 ,          0.0 ,          0.0 ,-195.1136501735405   ,-347.8250543585413  ,-196.26612436533654 ,-739.204823850142   , 87.8937275420447    ,246.4016094143192    ,152.23640201469016   ,-2.1993138581648397e-07 ,-1.3757231431372854e-05 ,-8.025748206091332e-07  ,      0.0 ,      0.0 ,      0.0 ,9.084547298373262e-07   ,-1.488561759416882e-05  ,      0.0 ,-1.397716300294931e-05  ,9.053272662137981e-06  ,0.5732550085034905   ,0.2946648442233249      ,-0.005997995722761869   ,-0.0033391805167947105  ,0.006388475128528773   ,-3.1676430553497203    ,0.0 ,-3.973368943820623    ,-23.19387943808092      ,        0.0 ,        0.0 , 0.0
 0.0 ,0.0 ,           0.0 ,            0.0 ,            0.0 ,            0.0 ,              0.0 ,                   0.0 ,1401.0 ,56.64063 ,0.0       ,           0.0 ,           0.0 ,       0.0 ,186.664        ,-18.6664    ,8.881784e-16     ,1.332268e-15     ,                 0.0 ,             0.0 ,             0.0 ,                 0.0 ,                 0.0 ,        0.0 ,0.0                    ,            0.0 ,            0.0 ,            0.0 ,              0.0 ,                   0.0 ,  0.0 ,0.0 ,  63.0526890076239   ,-19.13493555082592 ,0.0 ,-150.20647096360102 ,-301.8961131095082  ,-0.9660051654729485     ,-150.84806452398357 ,          0.0 ,          0.0 ,-149.69559048054901 ,-302.40699445125637 ,-150.84806452398357 ,-602.9506491411203  , 87.8937275420447    ,200.98354996185654  ,152.23640201469016   ,-195.62452991762592   ,-347.3141746533202  ,-0.9660051654729485     ,-196.26612436533654 ,          0.0 ,          0.0 ,-195.1136501735405   ,-347.8250543585413  ,-196.26612436533654 ,-739.204823850142   , 87.8937275420447    ,246.4016094143192    ,152.23640201469016   ,-2.1993138581648397e-07 ,-1.3757231431372854e-05 ,-8.025748206091332e-07  ,      0.0 ,      0.0 ,      0.0 ,9.084547298373262e-07   ,-1.488561759416882e-05  ,      0.0 ,-1.397716300294931e-05  ,9.053272662137981e-06  ,0.5732550085034905   ,0.2946648442233249      ,-0.005997995722761869   ,-0.0033391805167947105  ,0.006388475128528773   ,-3.1676430553497203    ,0.0 ,-3.973368943820623    ,-23.19387943808092      ,        0.0 ,        0.0 , 0.0
 0.0 ,0.0 ,           0.0 ,            0.0 ,            0.0 ,            0.0 ,              0.0 ,                   0.0 ,1402.0 ,54.6875  ,0.0       ,           0.0 ,           0.0 ,       0.0 ,186.7019       ,-18.67019   ,-8.881784e-16    ,-6.661338e-16    ,                 0.0 ,             0.0 ,             0.0 ,                 0.0 ,                 0.0 ,        0.0 ,0.0                    ,            0.0 ,            0.0 ,            0.0 ,              0.0 ,                   0.0 ,  0.0 ,0.0 ,  63.0526890076239   ,-19.13493555082592 ,0.0 ,-150.20647096360102 ,-301.8961131095082  ,-0.9660051654729485     ,-150.84806452398357 ,          0.0 ,          0.0 ,-149.69559048054901 ,-302.40699445125637 ,-150.84806452398357 ,-602.9506491411203  , 87.8937275420447    ,200.98354996185654  ,152.23640201469016   ,-195.62452991762592   ,-347.3141746533202  ,-0.9660051654729485     ,-196.26612436533654 ,          0.0 ,          0.0 ,-195.1136501735405   ,-347.8250543585413  ,-196.26612436533654 ,-739.204823850142   , 87.8937275420447    ,246.4016094143192    ,152.23640201469016   ,-2.1993138581648397e-07 ,-1.3757231431372854e-05 ,-8.025748206091332e-07  ,      0.0 ,      0.0 ,      0.0 ,9.084547298373262e-07   ,-1.488561759416882e-05  ,      0.0 ,-1.397716300294931e-05  ,9.053272662137981e-06  ,0.5732550085034905   ,0.2946648442233249      ,-0.005997995722761869   ,-0.0033391805167947105  ,0.006388475128528773   ,-3.1676430553497203    ,0.0 ,-3.973368943820623    ,-23.19387943808092      ,        0.0 ,        0.0 , 0.0
 0.0 ,0.0 ,           0.0 ,            0.0 ,            0.0 ,            0.0 ,              0.0 ,                   0.0 ,1403.0 ,52.73438 ,0.0       ,           0.0 ,           0.0 ,       0.0 ,186.7389       ,-18.67389   ,4.440892e-16     ,-4.440892e-16    ,                 0.0 ,             0.0 ,             0.0 ,                 0.0 ,                 0.0 ,        0.0 ,0.0                    ,            0.0 ,            0.0 ,            0.0 ,              0.0 ,                   0.0 ,  0.0 ,0.0 ,  63.0526890076239   ,-19.13493555082592 ,0.0 ,-150.20647096360102 ,-301.8961131095082  ,-0.9660051654729485     ,-150.84806452398357 ,          0.0 ,          0.0 ,-149.69559048054901 ,-302.40699445125637 ,-150.84806452398357 ,-602.9506491411203  , 87.8937275420447    ,200.98354996185654  ,152.23640201469016   ,-195.62452991762592   ,-347.3141746533202  ,-0.9660051654729485     ,-196.26612436533654 ,          0.0 ,          0.0 ,-195.1136501735405   ,-347.8250543585413  ,-196.26612436533654 ,-739.204823850142   , 87.8937275420447    ,246.4016094143192    ,152.23640201469016   ,-2.1993138581648397e-07 ,-1.3757231431372854e-05 ,-8.025748206091332e-07  ,      0.0 ,      0.0 ,      0.0 ,9.084547298373262e-07   ,-1.488561759416882e-05  ,      0.0 ,-1.397716300294931e-05  ,9.053272662137981e-06  ,0.5732550085034905   ,0.2946648442233249      ,-0.005997995722761869   ,-0.0033391805167947105  ,0.006388475128528773   ,-3.1676430553497203    ,0.0 ,-3.973368943820623    ,-23.19387943808092      ,        0.0 ,        0.0 , 0.0
 0.0 ,0.0 ,           0.0 ,            0.0 ,            0.0 ,            0.0 ,              0.0 ,                   0.0 ,1404.0 ,50.78125 ,0.0       ,           0.0 ,           0.0 ,       0.0 ,186.775        ,-18.6775    ,1.776357e-15     ,-2.220446e-16    ,                 0.0 ,             0.0 ,             0.0 ,                 0.0 ,                 0.0 ,        0.0 ,0.0                    ,            0.0 ,            0.0 ,            0.0 ,              0.0 ,                   0.0 ,  0.0 ,0.0 ,  63.0526890076239   ,-19.13493555082592 ,0.0 ,-150.20647096360102 ,-301.8961131095082  ,-0.9660051654729485     ,-150.84806452398357 ,          0.0 ,          0.0 ,-149.69559048054901 ,-302.40699445125637 ,-150.84806452398357 ,-602.9506491411203  , 87.8937275420447    ,200.98354996185654  ,152.23640201469016   ,-195.62452991762592   ,-347.3141746533202  ,-0.9660051654729485     ,-196.26612436533654 ,          0.0 ,          0.0 ,-195.1136501735405   ,-347.8250543585413  ,-196.26612436533654 ,-739.204823850142   , 87.8937275420447    ,246.4016094143192    ,152.23640201469016   ,-2.1993138581648397e-07 ,-1.3757231431372854e-05 ,-8.025748206091332e-07  ,      0.0 ,      0.0 ,      0.0 ,9.084547298373262e-07   ,-1.488561759416882e-05  ,      0.0 ,-1.397716300294931e-05  ,9.053272662137981e-06  ,0.5732550085034905   ,0.2946648442233249      ,-0.005997995722761869   ,-0.0033391805167947105  ,0.006388475128528773   ,-3.1676430553497203    ,0.0 ,-3.973368943820623    ,-23.19387943808092      ,        0.0 ,        0.0 , 0.0
 0.0 ,0.0 ,           0.0 ,            0.0 ,            0.0 ,            0.0 ,              0.0 ,                   0.0 ,1405.0 ,48.82813 ,0.0       ,           0.0 ,           0.0 ,       0.0 ,186.8099       ,-18.68099   ,0.0              ,8.881784e-16     ,                 0.0 ,             0.0 ,             0.0 ,                 0.0 ,                 0.0 ,        0.0 ,0.0                    ,            0.0 ,            0.0 ,            0.0 ,              0.0 ,                   0.0 ,  0.0 ,0.0 ,  63.0526890076239   ,-19.13493555082592 ,0.0 ,-150.20647096360102 ,-301.8961131095082  ,-0.9660051654729485     ,-150.84806452398357 ,          0.0 ,          0.0 ,-149.69559048054901 ,-302.40699445125637 ,-150.84806452398357 ,-602.9506491411203  , 87.8937275420447    ,200.98354996185654  ,152.23640201469016   ,-195.62452991762592   ,-347.3141746533202  ,-0.9660051654729485     ,-196.26612436533654 ,          0.0 ,          0.0 ,-195.1136501735405   ,-347.8250543585413  ,-196.26612436533654 ,-739.204823850142   , 87.8937275420447    ,246.4016094143192    ,152.23640201469016   ,-2.1993138581648397e-07 ,-1.3757231431372854e-05 ,-8.025748206091332e-07  ,      0.0 ,      0.0 ,      0.0 ,9.084547298373262e-07   ,-1.488561759416882e-05  ,      0.0 ,-1.397716300294931e-05  ,9.053272662137981e-06  ,0.5732550085034905   ,0.2946648442233249      ,-0.005997995722761869   ,-0.0033391805167947105  ,0.006388475128528773   ,-3.1676430553497203    ,0.0 ,-3.973368943820623    ,-23.19387943808092      ,        0.0 ,        0.0 , 0.0
 0.0 ,0.0 ,           0.0 ,            0.0 ,            0.0 ,            0.0 ,              0.0 ,                   0.0 ,1406.0 ,46.875   ,0.0       ,           0.0 ,           0.0 ,       0.0 ,186.8433       ,-18.68433   ,-1.776357e-15    ,-2.442491e-15    ,                 0.0 ,             0.0 ,             0.0 ,                 0.0 ,                 0.0 ,        0.0 ,0.0                    ,            0.0 ,            0.0 ,            0.0 ,              0.0 ,                   0.0 ,  0.0 ,0.0 ,  63.0526890076239   ,-19.13493555082592 ,0.0 ,-150.20647096360102 ,-301.8961131095082  ,-0.9660051654729485     ,-150.84806452398357 ,          0.0 ,          0.0 ,-149.69559048054901 ,-302.40699445125637 ,-150.84806452398357 ,-602.9506491411203  , 87.8937275420447    ,200.98354996185654  ,152.23640201469016   ,-195.62452991762592   ,-347.3141746533202  ,-0.9660051654729485     ,-196.26612436533654 ,          0.0 ,          0.0 ,-195.1136501735405   ,-347.8250543585413  ,-196.26612436533654 ,-739.204823850142   , 87.8937275420447    ,246.4016094143192    ,152.23640201469016   ,-2.1993138581648397e-07 ,-1.3757231431372854e-05 ,-8.025748206091332e-07  ,      0.0 ,      0.0 ,      0.0 ,9.084547298373262e-07   ,-1.488561759416882e-05  ,      0.0 ,-1.397716300294931e-05  ,9.053272662137981e-06  ,0.5732550085034905   ,0.2946648442233249      ,-0.005997995722761869   ,-0.0033391805167947105  ,0.006388475128528773   ,-3.1676430553497203    ,0.0 ,-3.973368943820623    ,-23.19387943808092      ,        0.0 ,        0.0 , 0.0
 0.0 ,0.0 ,           0.0 ,            0.0 ,            0.0 ,            0.0 ,              0.0 ,                   0.0 ,1407.0 ,44.92188 ,0.0       ,           0.0 ,           0.0 ,       0.0 ,186.875        ,-18.6875    ,-2.220446e-15    ,-3.552714e-15    ,                 0.0 ,             0.0 ,             0.0 ,                 0.0 ,                 0.0 ,        0.0 ,0.0                    ,            0.0 ,            0.0 ,            0.0 ,              0.0 ,                   0.0 ,  0.0 ,0.0 ,  63.0526890076239   ,-19.13493555082592 ,0.0 ,-150.20647096360102 ,-301.8961131095082  ,-0.9660051654729485     ,-150.84806452398357 ,          0.0 ,          0.0 ,-149.69559048054901 ,-302.40699445125637 ,-150.84806452398357 ,-602.9506491411203  , 87.8937275420447    ,200.98354996185654  ,152.23640201469016   ,-195.62452991762592   ,-347.3141746533202  ,-0.9660051654729485     ,-196.26612436533654 ,          0.0 ,          0.0 ,-195.1136501735405   ,-347.8250543585413  ,-196.26612436533654 ,-739.204823850142   , 87.8937275420447    ,246.4016094143192    ,152.23640201469016   ,-2.1993138581648397e-07 ,-1.3757231431372854e-05 ,-8.025748206091332e-07  ,      0.0 ,      0.0 ,      0.0 ,9.084547298373262e-07   ,-1.488561759416882e-05  ,      0.0 ,-1.397716300294931e-05  ,9.053272662137981e-06  ,0.5732550085034905   ,0.2946648442233249      ,-0.005997995722761869   ,-0.0033391805167947105  ,0.006388475128528773   ,-3.1676430553497203    ,0.0 ,-3.973368943820623    ,-23.19387943808092      ,        0.0 ,        0.0 , 0.0
 0.0 ,0.0 ,           0.0 ,            0.0 ,            0.0 ,            0.0 ,              0.0 ,                   0.0 ,1408.0 ,42.96875 ,0.0       ,           0.0 ,           0.0 ,       0.0 ,186.9043       ,-18.69043   ,-8.881784e-16    ,-1.332268e-15    ,                 0.0 ,             0.0 ,             0.0 ,                 0.0 ,                 0.0 ,        0.0 ,0.0                    ,            0.0 ,            0.0 ,            0.0 ,              0.0 ,                   0.0 ,  0.0 ,0.0 ,  63.0526890076239   ,-19.13493555082592 ,0.0 ,-150.20647096360102 ,-301.8961131095082  ,-0.9660051654729485     ,-150.84806452398357 ,          0.0 ,          0.0 ,-149.69559048054901 ,-302.40699445125637 ,-150.84806452398357 ,-602.9506491411203  , 87.8937275420447    ,200.98354996185654  ,152.23640201469016   ,-195.62452991762592   ,-347.3141746533202  ,-0.9660051654729485     ,-196.26612436533654 ,          0.0 ,          0.0 ,-195.1136501735405   ,-347.8250543585413  ,-196.26612436533654 ,-739.204823850142   , 87.8937275420447    ,246.4016094143192    ,152.23640201469016   ,-2.1993138581648397e-07 ,-1.3757231431372854e-05 ,-8.025748206091332e-07  ,      0.0 ,      0.0 ,      0.0 ,9.084547298373262e-07   ,-1.488561759416882e-05  ,      0.0 ,-1.397716300294931e-05  ,9.053272662137981e-06  ,0.5732550085034905   ,0.2946648442233249      ,-0.005997995722761869   ,-0.0033391805167947105  ,0.006388475128528773   ,-3.1676430553497203    ,0.0 ,-3.973368943820623    ,-23.19387943808092      ,        0.0 ,        0.0 , 0.0
 0.0 ,0.0 ,           0.0 ,            0.0 ,            0.0 ,            0.0 ,              0.0 ,                   0.0 ,1409.0 ,41.01563 ,0.0       ,           0.0 ,           0.0 ,       0.0 ,186.9307       ,-18.69307   ,-8.881784e-16    ,-4.440892e-15    ,                 0.0 ,             0.0 ,             0.0 ,                 0.0 ,                 0.0 ,        0.0 ,0.0                    ,            0.0 ,            0.0 ,            0.0 ,              0.0 ,                   0.0 ,  0.0 ,0.0 ,  63.0526890076239   ,-19.13493555082592 ,0.0 ,-150.20647096360102 ,-301.8961131095082  ,-0.9660051654729485     ,-150.84806452398357 ,          0.0 ,          0.0 ,-149.69559048054901 ,-302.40699445125637 ,-150.84806452398357 ,-602.9506491411203  , 87.8937275420447    ,200.98354996185654  ,152.23640201469016   ,-195.62452991762592   ,-347.3141746533202  ,-0.9660051654729485     ,-196.26612436533654 ,          0.0 ,          0.0 ,-195.1136501735405   ,-347.8250543585413  ,-196.26612436533654 ,-739.204823850142   , 87.8937275420447    ,246.4016094143192    ,152.23640201469016   ,-2.1993138581648397e-07 ,-1.3757231431372854e-05 ,-8.025748206091332e-07  ,      0.0 ,      0.0 ,      0.0 ,9.084547298373262e-07   ,-1.488561759416882e-05  ,      0.0 ,-1.397716300294931e-05  ,9.053272662137981e-06  ,0.5732550085034905   ,0.2946648442233249      ,-0.005997995722761869   ,-0.0033391805167947105  ,0.006388475128528773   ,-3.1676430553497203    ,0.0 ,-3.973368943820623    ,-23.19387943808092      ,        0.0 ,        0.0 , 0.0
 0.0 ,0.0 ,           0.0 ,            0.0 ,            0.0 ,            0.0 ,              0.0 ,                   0.0 ,1410.0 ,39.0625  ,0.0       ,           0.0 ,           0.0 ,       0.0 ,186.9531       ,-18.69531   ,-4.440892e-15    ,8.881784e-16     ,                 0.0 ,             0.0 ,             0.0 ,                 0.0 ,                 0.0 ,        0.0 ,0.0                    ,            0.0 ,            0.0 ,            0.0 ,              0.0 ,                   0.0 ,  0.0 ,0.0 ,  63.0526890076239   ,-19.13493555082592 ,0.0 ,-150.20647096360102 ,-301.8961131095082  ,-0.9660051654729485     ,-150.84806452398357 ,          0.0 ,          0.0 ,-149.69559048054901 ,-302.40699445125637 ,-150.84806452398357 ,-602.9506491411203  , 87.8937275420447    ,200.98354996185654  ,152.23640201469016   ,-195.62452991762592   ,-347.3141746533202  ,-0.9660051654729485     ,-196.26612436533654 ,          0.0 ,          0.0 ,-195.1136501735405   ,-347.8250543585413  ,-196.26612436533654 ,-739.204823850142   , 87.8937275420447    ,246.4016094143192    ,152.23640201469016   ,-2.1993138581648397e-07 ,-1.3757231431372854e-05 ,-8.025748206091332e-07  ,      0.0 ,      0.0 ,      0.0 ,9.084547298373262e-07   ,-1.488561759416882e-05  ,      0.0 ,-1.397716300294931e-05  ,9.053272662137981e-06  ,0.5732550085034905   ,0.2946648442233249      ,-0.005997995722761869   ,-0.0033391805167947105  ,0.006388475128528773   ,-3.1676430553497203    ,0.0 ,-3.973368943820623    ,-23.19387943808092      ,        0.0 ,        0.0 , 0.0
 0.0 ,0.0 ,           0.0 ,            0.0 ,            0.0 ,            0.0 ,              0.0 ,                   0.0 ,1411.0 ,37.10938 ,0.0       ,           0.0 ,           0.0 ,       0.0 ,186.9704       ,-18.69704   ,7.105427e-15     ,-4.440892e-16    ,                 0.0 ,             0.0 ,             0.0 ,                 0.0 ,                 0.0 ,        0.0 ,0.0                    ,            0.0 ,            0.0 ,            0.0 ,              0.0 ,                   0.0 ,  0.0 ,0.0 ,  63.0526890076239   ,-19.13493555082592 ,0.0 ,-150.20647096360102 ,-301.8961131095082  ,-0.9660051654729485     ,-150.84806452398357 ,          0.0 ,          0.0 ,-149.69559048054901 ,-302.40699445125637 ,-150.84806452398357 ,-602.9506491411203  , 87.8937275420447    ,200.98354996185654  ,152.23640201469016   ,-195.62452991762592   ,-347.3141746533202  ,-0.9660051654729485     ,-196.26612436533654 ,          0.0 ,          0.0 ,-195.1136501735405   ,-347.8250543585413  ,-196.26612436533654 ,-739.204823850142   , 87.8937275420447    ,246.4016094143192    ,152.23640201469016   ,-2.1993138581648397e-07 ,-1.3757231431372854e-05 ,-8.025748206091332e-07  ,      0.0 ,      0.0 ,      0.0 ,9.084547298373262e-07   ,-1.488561759416882e-05  ,      0.0 ,-1.397716300294931e-05  ,9.053272662137981e-06  ,0.5732550085034905   ,0.2946648442233249      ,-0.005997995722761869   ,-0.0033391805167947105  ,0.006388475128528773   ,-3.1676430553497203    ,0.0 ,-3.973368943820623    ,-23.19387943808092      ,        0.0 ,        0.0 , 0.0
 0.0 ,0.0 ,           0.0 ,            0.0 ,            0.0 ,            0.0 ,              0.0 ,                   0.0 ,1412.0 ,35.15625 ,0.0       ,           0.0 ,           0.0 ,       0.0 ,186.9807       ,-18.69807   ,-1.332268e-15    ,8.881784e-16     ,                 0.0 ,             0.0 ,             0.0 ,                 0.0 ,                 0.0 ,        0.0 ,0.0                    ,            0.0 ,            0.0 ,            0.0 ,              0.0 ,                   0.0 ,  0.0 ,0.0 ,  63.0526890076239   ,-19.13493555082592 ,0.0 ,-150.20647096360102 ,-301.8961131095082  ,-0.9660051654729485     ,-150.84806452398357 ,          0.0 ,          0.0 ,-149.69559048054901 ,-302.40699445125637 ,-150.84806452398357 ,-602.9506491411203  , 87.8937275420447    ,200.98354996185654  ,152.23640201469016   ,-195.62452991762592   ,-347.3141746533202  ,-0.9660051654729485     ,-196.26612436533654 ,          0.0 ,          0.0 ,-195.1136501735405   ,-347.8250543585413  ,-196.26612436533654 ,-739.204823850142   , 87.8937275420447    ,246.4016094143192    ,152.23640201469016   ,-2.1993138581648397e-07 ,-1.3757231431372854e-05 ,-8.025748206091332e-07  ,      0.0 ,      0.0 ,      0.0 ,9.084547298373262e-07   ,-1.488561759416882e-05  ,      0.0 ,-1.397716300294931e-05  ,9.053272662137981e-06  ,0.5732550085034905   ,0.2946648442233249      ,-0.005997995722761869   ,-0.0033391805167947105  ,0.006388475128528773   ,-3.1676430553497203    ,0.0 ,-3.973368943820623    ,-23.19387943808092      ,        0.0 ,        0.0 , 0.0
 0.0 ,0.0 ,           0.0 ,            0.0 ,            0.0 ,            0.0 ,              0.0 ,                   0.0 ,1413.0 ,33.20313 ,0.0       ,           0.0 ,           0.0 ,       0.0 ,186.9816       ,-18.69816   ,2.442491e-15     ,2.220446e-16     ,                 0.0 ,             0.0 ,             0.0 ,                 0.0 ,                 0.0 ,        0.0 ,0.0                    ,            0.0 ,            0.0 ,            0.0 ,              0.0 ,                   0.0 ,  0.0 ,0.0 ,  63.0526890076239   ,-19.13493555082592 ,0.0 ,-150.20647096360102 ,-301.8961131095082  ,-0.9660051654729485     ,-150.84806452398357 ,          0.0 ,          0.0 ,-149.69559048054901 ,-302.40699445125637 ,-150.84806452398357 ,-602.9506491411203  , 87.8937275420447    ,200.98354996185654  ,152.23640201469016   ,-195.62452991762592   ,-347.3141746533202  ,-0.9660051654729485     ,-196.26612436533654 ,          0.0 ,          0.0 ,-195.1136501735405   ,-347.8250543585413  ,-196.26612436533654 ,-739.204823850142   , 87.8937275420447    ,246.4016094143192    ,152.23640201469016   ,-2.1993138581648397e-07 ,-1.3757231431372854e-05 ,-8.025748206091332e-07  ,      0.0 ,      0.0 ,      0.0 ,9.084547298373262e-07   ,-1.488561759416882e-05  ,      0.0 ,-1.397716300294931e-05  ,9.053272662137981e-06  ,0.5732550085034905   ,0.2946648442233249      ,-0.005997995722761869   ,-0.0033391805167947105  ,0.006388475128528773   ,-3.1676430553497203    ,0.0 ,-3.973368943820623    ,-23.19387943808092      ,        0.0 ,        0.0 , 0.0
 0.0 ,0.0 ,           0.0 ,            0.0 ,            0.0 ,            0.0 ,              0.0 ,                   0.0 ,1414.0 ,31.25    ,0.0       ,           0.0 ,           0.0 ,       0.0 ,186.9694       ,-18.69694   ,1.776357e-15     ,2.220446e-16     ,                 0.0 ,             0.0 ,             0.0 ,                 0.0 ,                 0.0 ,        0.0 ,0.0                    ,            0.0 ,            0.0 ,            0.0 ,              0.0 ,                   0.0 ,  0.0 ,0.0 ,  63.0526890076239   ,-19.13493555082592 ,0.0 ,-150.20647096360102 ,-301.8961131095082  ,-0.9660051654729485     ,-150.84806452398357 ,          0.0 ,          0.0 ,-149.69559048054901 ,-302.40699445125637 ,-150.84806452398357 ,-602.9506491411203  , 87.8937275420447    ,200.98354996185654  ,152.23640201469016   ,-195.62452991762592   ,-347.3141746533202  ,-0.9660051654729485     ,-196.26612436533654 ,          0.0 ,          0.0 ,-195.1136501735405   ,-347.8250543585413  ,-196.26612436533654 ,-739.204823850142   , 87.8937275420447    ,246.4016094143192    ,152.23640201469016   ,-2.1993138581648397e-07 ,-1.3757231431372854e-05 ,-8.025748206091332e-07  ,      0.0 ,      0.0 ,      0.0 ,9.084547298373262e-07   ,-1.488561759416882e-05  ,      0.0 ,-1.397716300294931e-05  ,9.053272662137981e-06  ,0.5732550085034905   ,0.2946648442233249      ,-0.005997995722761869   ,-0.0033391805167947105  ,0.006388475128528773   ,-3.1676430553497203    ,0.0 ,-3.973368943820623    ,-23.19387943808092      ,        0.0 ,        0.0 , 0.0
 0.0 ,0.0 ,           0.0 ,            0.0 ,            0.0 ,            0.0 ,              0.0 ,                   0.0 ,1415.0 ,29.29688 ,0.0       ,           0.0 ,           0.0 ,       0.0 ,186.9392       ,-18.69392   ,5.551115e-15     ,-2.442491e-15    ,                 0.0 ,             0.0 ,             0.0 ,                 0.0 ,                 0.0 ,        0.0 ,0.0                    ,            0.0 ,            0.0 ,            0.0 ,              0.0 ,                   0.0 ,  0.0 ,0.0 ,  63.0526890076239   ,-19.13493555082592 ,0.0 ,-150.20647096360102 ,-301.8961131095082  ,-0.9660051654729485     ,-150.84806452398357 ,          0.0 ,          0.0 ,-149.69559048054901 ,-302.40699445125637 ,-150.84806452398357 ,-602.9506491411203  , 87.8937275420447    ,200.98354996185654  ,152.23640201469016   ,-195.62452991762592   ,-347.3141746533202  ,-0.9660051654729485     ,-196.26612436533654 ,          0.0 ,          0.0 ,-195.1136501735405   ,-347.8250543585413  ,-196.26612436533654 ,-739.204823850142   , 87.8937275420447    ,246.4016094143192    ,152.23640201469016   ,-2.1993138581648397e-07 ,-1.3757231431372854e-05 ,-8.025748206091332e-07  ,      0.0 ,      0.0 ,      0.0 ,9.084547298373262e-07   ,-1.488561759416882e-05  ,      0.0 ,-1.397716300294931e-05  ,9.053272662137981e-06  ,0.5732550085034905   ,0.2946648442233249      ,-0.005997995722761869   ,-0.0033391805167947105  ,0.006388475128528773   ,-3.1676430553497203    ,0.0 ,-3.973368943820623    ,-23.19387943808092      ,        0.0 ,        0.0 , 0.0
 0.0 ,0.0 ,           0.0 ,            0.0 ,            0.0 ,            0.0 ,              0.0 ,                   0.0 ,1416.0 ,27.34375 ,0.0       ,           0.0 ,           0.0 ,       0.0 ,186.8838       ,-18.68838   ,1.44329e-15      ,-1.110223e-15    ,                 0.0 ,             0.0 ,             0.0 ,                 0.0 ,                 0.0 ,        0.0 ,0.0                    ,            0.0 ,            0.0 ,            0.0 ,              0.0 ,                   0.0 ,  0.0 ,0.0 ,  63.0526890076239   ,-19.13493555082592 ,0.0 ,-150.20647096360102 ,-301.8961131095082  ,-0.9660051654729485     ,-150.84806452398357 ,          0.0 ,          0.0 ,-149.69559048054901 ,-302.40699445125637 ,-150.84806452398357 ,-602.9506491411203  , 87.8937275420447    ,200.98354996185654  ,152.23640201469016   ,-195.62452991762592   ,-347.3141746533202  ,-0.9660051654729485     ,-196.26612436533654 ,          0.0 ,          0.0 ,-195.1136501735405   ,-347.8250543585413  ,-196.26612436533654 ,-739.204823850142   , 87.8937275420447    ,246.4016094143192    ,152.23640201469016   ,-2.1993138581648397e-07 ,-1.3757231431372854e-05 ,-8.025748206091332e-07  ,      0.0 ,      0.0 ,      0.0 ,9.084547298373262e-07   ,-1.488561759416882e-05  ,      0.0 ,-1.397716300294931e-05  ,9.053272662137981e-06  ,0.5732550085034905   ,0.2946648442233249      ,-0.005997995722761869   ,-0.0033391805167947105  ,0.006388475128528773   ,-3.1676430553497203    ,0.0 ,-3.973368943820623    ,-23.19387943808092      ,        0.0 ,        0.0 , 0.0
 0.0 ,0.0 ,           0.0 ,            0.0 ,            0.0 ,            0.0 ,              0.0 ,                   0.0 ,1417.0 ,25.39063 ,0.0       ,           0.0 ,           0.0 ,       0.0 ,186.7932       ,-18.67933   ,-2.664535e-15    ,-2.220446e-16    ,                 0.0 ,             0.0 ,             0.0 ,                 0.0 ,                 0.0 ,        0.0 ,0.0                    ,            0.0 ,            0.0 ,            0.0 ,              0.0 ,                   0.0 ,  0.0 ,0.0 ,  63.0526890076239   ,-19.13493555082592 ,0.0 ,-150.20647096360102 ,-301.8961131095082  ,-0.9660051654729485     ,-150.84806452398357 ,          0.0 ,          0.0 ,-149.69559048054901 ,-302.40699445125637 ,-150.84806452398357 ,-602.9506491411203  , 87.8937275420447    ,200.98354996185654  ,152.23640201469016   ,-195.62452991762592   ,-347.3141746533202  ,-0.9660051654729485     ,-196.26612436533654 ,          0.0 ,          0.0 ,-195.1136501735405   ,-347.8250543585413  ,-196.26612436533654 ,-739.204823850142   , 87.8937275420447    ,246.4016094143192    ,152.23640201469016   ,-2.1993138581648397e-07 ,-1.3757231431372854e-05 ,-8.025748206091332e-07  ,      0.0 ,      0.0 ,      0.0 ,9.084547298373262e-07   ,-1.488561759416882e-05  ,      0.0 ,-1.397716300294931e-05  ,9.053272662137981e-06  ,0.5732550085034905   ,0.2946648442233249      ,-0.005997995722761869   ,-0.0033391805167947105  ,0.006388475128528773   ,-3.1676430553497203    ,0.0 ,-3.973368943820623    ,-23.19387943808092      ,        0.0 ,        0.0 , 0.0
 0.0 ,0.0 ,           0.0 ,            0.0 ,            0.0 ,            0.0 ,              0.0 ,                   0.0 ,1418.0 ,23.4375  ,0.0       ,           0.0 ,           0.0 ,       0.0 ,186.6534       ,-18.66534   ,3.552714e-15     ,2.664535e-15     ,                 0.0 ,             0.0 ,             0.0 ,                 0.0 ,                 0.0 ,        0.0 ,0.0                    ,            0.0 ,            0.0 ,            0.0 ,              0.0 ,                   0.0 ,  0.0 ,0.0 ,  63.0526890076239   ,-19.13493555082592 ,0.0 ,-150.20647096360102 ,-301.8961131095082  ,-0.9660051654729485     ,-150.84806452398357 ,          0.0 ,          0.0 ,-149.69559048054901 ,-302.40699445125637 ,-150.84806452398357 ,-602.9506491411203  , 87.8937275420447    ,200.98354996185654  ,152.23640201469016   ,-195.62452991762592   ,-347.3141746533202  ,-0.9660051654729485     ,-196.26612436533654 ,          0.0 ,          0.0 ,-195.1136501735405   ,-347.8250543585413  ,-196.26612436533654 ,-739.204823850142   , 87.8937275420447    ,246.4016094143192    ,152.23640201469016   ,-2.1993138581648397e-07 ,-1.3757231431372854e-05 ,-8.025748206091332e-07  ,      0.0 ,      0.0 ,      0.0 ,9.084547298373262e-07   ,-1.488561759416882e-05  ,      0.0 ,-1.397716300294931e-05  ,9.053272662137981e-06  ,0.5732550085034905   ,0.2946648442233249      ,-0.005997995722761869   ,-0.0033391805167947105  ,0.006388475128528773   ,-3.1676430553497203    ,0.0 ,-3.973368943820623    ,-23.19387943808092      ,        0.0 ,        0.0 , 0.0
 0.0 ,0.0 ,           0.0 ,            0.0 ,            0.0 ,            0.0 ,              0.0 ,                   0.0 ,1419.0 ,21.48438 ,0.0       ,           0.0 ,           0.0 ,       0.0 ,186.4449       ,-18.64449   ,-9.992007e-16    ,-1.332268e-15    ,                 0.0 ,             0.0 ,             0.0 ,                 0.0 ,                 0.0 ,        0.0 ,0.0                    ,            0.0 ,            0.0 ,            0.0 ,              0.0 ,                   0.0 ,  0.0 ,0.0 ,  63.0526890076239   ,-19.13493555082592 ,0.0 ,-150.20647096360102 ,-301.8961131095082  ,-0.9660051654729485     ,-150.84806452398357 ,          0.0 ,          0.0 ,-149.69559048054901 ,-302.40699445125637 ,-150.84806452398357 ,-602.9506491411203  , 87.8937275420447    ,200.98354996185654  ,152.23640201469016   ,-195.62452991762592   ,-347.3141746533202  ,-0.9660051654729485     ,-196.26612436533654 ,          0.0 ,          0.0 ,-195.1136501735405   ,-347.8250543585413  ,-196.26612436533654 ,-739.204823850142   , 87.8937275420447    ,246.4016094143192    ,152.23640201469016   ,-2.1993138581648397e-07 ,-1.3757231431372854e-05 ,-8.025748206091332e-07  ,      0.0 ,      0.0 ,      0.0 ,9.084547298373262e-07   ,-1.488561759416882e-05  ,      0.0 ,-1.397716300294931e-05  ,9.053272662137981e-06  ,0.5732550085034905   ,0.2946648442233249      ,-0.005997995722761869   ,-0.0033391805167947105  ,0.006388475128528773   ,-3.1676430553497203    ,0.0 ,-3.973368943820623    ,-23.19387943808092      ,        0.0 ,        0.0 , 0.0
 0.0 ,0.0 ,           0.0 ,            0.0 ,            0.0 ,            0.0 ,              0.0 ,                   0.0 ,1420.0 ,19.53125 ,0.0       ,           0.0 ,           0.0 ,       0.0 ,186.1417       ,-18.61417   ,-5.551115e-15    ,-6.661338e-16    ,                 0.0 ,             0.0 ,             0.0 ,                 0.0 ,                 0.0 ,        0.0 ,0.0                    ,            0.0 ,            0.0 ,            0.0 ,              0.0 ,                   0.0 ,  0.0 ,0.0 ,  63.0526890076239   ,-19.13493555082592 ,0.0 ,-150.20647096360102 ,-301.8961131095082  ,-0.9660051654729485     ,-150.84806452398357 ,          0.0 ,          0.0 ,-149.69559048054901 ,-302.40699445125637 ,-150.84806452398357 ,-602.9506491411203  , 87.8937275420447    ,200.98354996185654  ,152.23640201469016   ,-195.62452991762592   ,-347.3141746533202  ,-0.9660051654729485     ,-196.26612436533654 ,          0.0 ,          0.0 ,-195.1136501735405   ,-347.8250543585413  ,-196.26612436533654 ,-739.204823850142   , 87.8937275420447    ,246.4016094143192    ,152.23640201469016   ,-2.1993138581648397e-07 ,-1.3757231431372854e-05 ,-8.025748206091332e-07  ,      0.0 ,      0.0 ,      0.0 ,9.084547298373262e-07   ,-1.488561759416882e-05  ,      0.0 ,-1.397716300294931e-05  ,9.053272662137981e-06  ,0.5732550085034905   ,0.2946648442233249      ,-0.005997995722761869   ,-0.0033391805167947105  ,0.006388475128528773   ,-3.1676430553497203    ,0.0 ,-3.973368943820623    ,-23.19387943808092      ,        0.0 ,        0.0 , 0.0
 0.0 ,0.0 ,           0.0 ,            0.0 ,            0.0 ,            0.0 ,              0.0 ,                   0.0 ,1421.0 ,17.57813 ,0.0       ,           0.0 ,           0.0 ,       0.0 ,185.711        ,-18.5711    ,4.440892e-16     ,-1.110223e-15    ,                 0.0 ,             0.0 ,             0.0 ,                 0.0 ,                 0.0 ,        0.0 ,0.0                    ,            0.0 ,            0.0 ,            0.0 ,              0.0 ,                   0.0 ,  0.0 ,0.0 ,  63.0526890076239   ,-19.13493555082592 ,0.0 ,-150.20647096360102 ,-301.8961131095082  ,-0.9660051654729485     ,-150.84806452398357 ,          0.0 ,          0.0 ,-149.69559048054901 ,-302.40699445125637 ,-150.84806452398357 ,-602.9506491411203  , 87.8937275420447    ,200.98354996185654  ,152.23640201469016   ,-195.62452991762592   ,-347.3141746533202  ,-0.9660051654729485     ,-196.26612436533654 ,          0.0 ,          0.0 ,-195.1136501735405   ,-347.8250543585413  ,-196.26612436533654 ,-739.204823850142   , 87.8937275420447    ,246.4016094143192    ,152.23640201469016   ,-2.1993138581648397e-07 ,-1.3757231431372854e-05 ,-8.025748206091332e-07  ,      0.0 ,      0.0 ,      0.0 ,9.084547298373262e-07   ,-1.488561759416882e-05  ,      0.0 ,-1.397716300294931e-05  ,9.053272662137981e-06  ,0.5732550085034905   ,0.2946648442233249      ,-0.005997995722761869   ,-0.0033391805167947105  ,0.006388475128528773   ,-3.1676430553497203    ,0.0 ,-3.973368943820623    ,-23.19387943808092      ,        0.0 ,        0.0 , 0.0
 0.0 ,0.0 ,           0.0 ,            0.0 ,            0.0 ,            0.0 ,              0.0 ,                   0.0 ,1422.0 ,15.625   ,0.0       ,           0.0 ,           0.0 ,       0.0 ,185.1156       ,-18.51156   ,-1.554312e-15    ,-6.661338e-16    ,                 0.0 ,             0.0 ,             0.0 ,                 0.0 ,                 0.0 ,        0.0 ,0.0                    ,            0.0 ,            0.0 ,            0.0 ,              0.0 ,                   0.0 ,  0.0 ,0.0 ,  63.0526890076239   ,-19.13493555082592 ,0.0 ,-150.20647096360102 ,-301.8961131095082  ,-0.9660051654729485     ,-150.84806452398357 ,          0.0 ,          0.0 ,-149.69559048054901 ,-302.40699445125637 ,-150.84806452398357 ,-602.9506491411203  , 87.8937275420447    ,200.98354996185654  ,152.23640201469016   ,-195.62452991762592   ,-347.3141746533202  ,-0.9660051654729485     ,-196.26612436533654 ,          0.0 ,          0.0 ,-195.1136501735405   ,-347.8250543585413  ,-196.26612436533654 ,-739.204823850142   , 87.8937275420447    ,246.4016094143192    ,152.23640201469016   ,-2.1993138581648397e-07 ,-1.3757231431372854e-05 ,-8.025748206091332e-07  ,      0.0 ,      0.0 ,      0.0 ,9.084547298373262e-07   ,-1.488561759416882e-05  ,      0.0 ,-1.397716300294931e-05  ,9.053272662137981e-06  ,0.5732550085034905   ,0.2946648442233249      ,-0.005997995722761869   ,-0.0033391805167947105  ,0.006388475128528773   ,-3.1676430553497203    ,0.0 ,-3.973368943820623    ,-23.19387943808092      ,        0.0 ,        0.0 , 0.0
 0.0 ,0.0 ,           0.0 ,            0.0 ,            0.0 ,            0.0 ,              0.0 ,                   0.0 ,1423.0 ,13.67188 ,0.0       ,           0.0 ,           0.0 ,       0.0 ,184.3253       ,-18.43253   ,2.220446e-15     ,-4.440892e-16    ,                 0.0 ,             0.0 ,             0.0 ,                 0.0 ,                 0.0 ,        0.0 ,0.0                    ,            0.0 ,            0.0 ,            0.0 ,              0.0 ,                   0.0 ,  0.0 ,0.0 ,  63.0526890076239   ,-19.13493555082592 ,0.0 ,-150.20647096360102 ,-301.8961131095082  ,-0.9660051654729485     ,-150.84806452398357 ,          0.0 ,          0.0 ,-149.69559048054901 ,-302.40699445125637 ,-150.84806452398357 ,-602.9506491411203  , 87.8937275420447    ,200.98354996185654  ,152.23640201469016   ,-195.62452991762592   ,-347.3141746533202  ,-0.9660051654729485     ,-196.26612436533654 ,          0.0 ,          0.0 ,-195.1136501735405   ,-347.8250543585413  ,-196.26612436533654 ,-739.204823850142   , 87.8937275420447    ,246.4016094143192    ,152.23640201469016   ,-2.1993138581648397e-07 ,-1.3757231431372854e-05 ,-8.025748206091332e-07  ,      0.0 ,      0.0 ,      0.0 ,9.084547298373262e-07   ,-1.488561759416882e-05  ,      0.0 ,-1.397716300294931e-05  ,9.053272662137981e-06  ,0.5732550085034905   ,0.2946648442233249      ,-0.005997995722761869   ,-0.0033391805167947105  ,0.006388475128528773   ,-3.1676430553497203    ,0.0 ,-3.973368943820623    ,-23.19387943808092      ,        0.0 ,        0.0 , 0.0
 0.0 ,0.0 ,           0.0 ,            0.0 ,            0.0 ,            0.0 ,              0.0 ,                   0.0 ,1424.0 ,11.71875 ,0.0       ,           0.0 ,           0.0 ,       0.0 ,183.3309       ,-18.33309   ,1.332268e-15     ,2.88658e-15      ,                 0.0 ,             0.0 ,             0.0 ,                 0.0 ,                 0.0 ,        0.0 ,0.0                    ,            0.0 ,            0.0 ,            0.0 ,              0.0 ,                   0.0 ,  0.0 ,0.0 ,  63.0526890076239   ,-19.13493555082592 ,0.0 ,-150.20647096360102 ,-301.8961131095082  ,-0.9660051654729485     ,-150.84806452398357 ,          0.0 ,          0.0 ,-149.69559048054901 ,-302.40699445125637 ,-150.84806452398357 ,-602.9506491411203  , 87.8937275420447    ,200.98354996185654  ,152.23640201469016   ,-195.62452991762592   ,-347.3141746533202  ,-0.9660051654729485     ,-196.26612436533654 ,          0.0 ,          0.0 ,-195.1136501735405   ,-347.8250543585413  ,-196.26612436533654 ,-739.204823850142   , 87.8937275420447    ,246.4016094143192    ,152.23640201469016   ,-2.1993138581648397e-07 ,-1.3757231431372854e-05 ,-8.025748206091332e-07  ,      0.0 ,      0.0 ,      0.0 ,9.084547298373262e-07   ,-1.488561759416882e-05  ,      0.0 ,-1.397716300294931e-05  ,9.053272662137981e-06  ,0.5732550085034905   ,0.2946648442233249      ,-0.005997995722761869   ,-0.0033391805167947105  ,0.006388475128528773   ,-3.1676430553497203    ,0.0 ,-3.973368943820623    ,-23.19387943808092      ,        0.0 ,        0.0 , 0.0
 0.0 ,0.0 ,           0.0 ,            0.0 ,            0.0 ,            0.0 ,              0.0 ,                   0.0 ,1425.0 ,9.765625 ,0.0       ,           0.0 ,           0.0 ,       0.0 ,182.1795       ,-18.21795   ,-2.664535e-15    ,2.88658e-15      ,                 0.0 ,             0.0 ,             0.0 ,                 0.0 ,                 0.0 ,        0.0 ,0.0                    ,            0.0 ,            0.0 ,            0.0 ,              0.0 ,                   0.0 ,  0.0 ,0.0 ,  63.0526890076239   ,-19.13493555082592 ,0.0 ,-150.20647096360102 ,-301.8961131095082  ,-0.9660051654729485     ,-150.84806452398357 ,          0.0 ,          0.0 ,-149.69559048054901 ,-302.40699445125637 ,-150.84806452398357 ,-602.9506491411203  , 87.8937275420447    ,200.98354996185654  ,152.23640201469016   ,-195.62452991762592   ,-347.3141746533202  ,-0.9660051654729485     ,-196.26612436533654 ,          0.0 ,          0.0 ,-195.1136501735405   ,-347.8250543585413  ,-196.26612436533654 ,-739.204823850142   , 87.8937275420447    ,246.4016094143192    ,152.23640201469016   ,-2.1993138581648397e-07 ,-1.3757231431372854e-05 ,-8.025748206091332e-07  ,      0.0 ,      0.0 ,      0.0 ,9.084547298373262e-07   ,-1.488561759416882e-05  ,      0.0 ,-1.397716300294931e-05  ,9.053272662137981e-06  ,0.5732550085034905   ,0.2946648442233249      ,-0.005997995722761869   ,-0.0033391805167947105  ,0.006388475128528773   ,-3.1676430553497203    ,0.0 ,-3.973368943820623    ,-23.19387943808092      ,        0.0 ,        0.0 , 0.0
 0.0 ,0.0 ,           0.0 ,            0.0 ,            0.0 ,            0.0 ,              0.0 ,                   0.0 ,1426.0 ,7.8125   ,0.0       ,           0.0 ,           0.0 ,       0.0 ,181.0186       ,-18.10186   ,8.881784e-16     ,1.110223e-15     ,                 0.0 ,             0.0 ,             0.0 ,                 0.0 ,                 0.0 ,        0.0 ,0.0                    ,            0.0 ,            0.0 ,            0.0 ,              0.0 ,                   0.0 ,  0.0 ,0.0 ,  63.0526890076239   ,-19.13493555082592 ,0.0 ,-150.20647096360102 ,-301.8961131095082  ,-0.9660051654729485     ,-150.84806452398357 ,          0.0 ,          0.0 ,-149.69559048054901 ,-302.40699445125637 ,-150.84806452398357 ,-602.9506491411203  , 87.8937275420447    ,200.98354996185654  ,152.23640201469016   ,-195.62452991762592   ,-347.3141746533202  ,-0.9660051654729485     ,-196.26612436533654 ,          0.0 ,          0.0 ,-195.1136501735405   ,-347.8250543585413  ,-196.26612436533654 ,-739.204823850142   , 87.8937275420447    ,246.4016094143192    ,152.23640201469016   ,-2.1993138581648397e-07 ,-1.3757231431372854e-05 ,-8.025748206091332e-07  ,      0.0 ,      0.0 ,      0.0 ,9.084547298373262e-07   ,-1.488561759416882e-05  ,      0.0 ,-1.397716300294931e-05  ,9.053272662137981e-06  ,0.5732550085034905   ,0.2946648442233249      ,-0.005997995722761869   ,-0.0033391805167947105  ,0.006388475128528773   ,-3.1676430553497203    ,0.0 ,-3.973368943820623    ,-23.19387943808092      ,        0.0 ,        0.0 , 0.0
 0.0 ,0.0 ,           0.0 ,            0.0 ,            0.0 ,            0.0 ,              0.0 ,                   0.0 ,1427.0 ,5.859375 ,0.0       ,           0.0 ,           0.0 ,       0.0 ,180.0351       ,-18.00351   ,-1.332268e-15    ,3.330669e-15     ,                 0.0 ,             0.0 ,             0.0 ,                 0.0 ,                 0.0 ,        0.0 ,0.0                    ,            0.0 ,            0.0 ,            0.0 ,              0.0 ,                   0.0 ,  0.0 ,0.0 ,  63.0526890076239   ,-19.13493555082592 ,0.0 ,-150.20647096360102 ,-301.8961131095082  ,-0.9660051654729485     ,-150.84806452398357 ,          0.0 ,          0.0 ,-149.69559048054901 ,-302.40699445125637 ,-150.84806452398357 ,-602.9506491411203  , 87.8937275420447    ,200.98354996185654  ,152.23640201469016   ,-195.62452991762592   ,-347.3141746533202  ,-0.9660051654729485     ,-196.26612436533654 ,          0.0 ,          0.0 ,-195.1136501735405   ,-347.8250543585413  ,-196.26612436533654 ,-739.204823850142   , 87.8937275420447    ,246.4016094143192    ,152.23640201469016   ,-2.1993138581648397e-07 ,-1.3757231431372854e-05 ,-8.025748206091332e-07  ,      0.0 ,      0.0 ,      0.0 ,9.084547298373262e-07   ,-1.488561759416882e-05  ,      0.0 ,-1.397716300294931e-05  ,9.053272662137981e-06  ,0.5732550085034905   ,0.2946648442233249      ,-0.005997995722761869   ,-0.0033391805167947105  ,0.006388475128528773   ,-3.1676430553497203    ,0.0 ,-3.973368943820623    ,-23.19387943808092      ,        0.0 ,        0.0 , 0.0
 0.0 ,0.0 ,           0.0 ,            0.0 ,            0.0 ,            0.0 ,              0.0 ,                   0.0 ,1428.0 ,3.90625  ,0.0       ,           0.0 ,           0.0 ,       0.0 ,179.4314       ,-17.94314   ,-1.332268e-15    ,2.220446e-16     ,                 0.0 ,             0.0 ,             0.0 ,                 0.0 ,                 0.0 ,        0.0 ,0.0                    ,            0.0 ,            0.0 ,            0.0 ,              0.0 ,                   0.0 ,  0.0 ,0.0 ,  63.0526890076239   ,-19.13493555082592 ,0.0 ,-150.20647096360102 ,-301.8961131095082  ,-0.9660051654729485     ,-150.84806452398357 ,          0.0 ,          0.0 ,-149.69559048054901 ,-302.40699445125637 ,-150.84806452398357 ,-602.9506491411203  , 87.8937275420447    ,200.98354996185654  ,152.23640201469016   ,-195.62452991762592   ,-347.3141746533202  ,-0.9660051654729485     ,-196.26612436533654 ,          0.0 ,          0.0 ,-195.1136501735405   ,-347.8250543585413  ,-196.26612436533654 ,-739.204823850142   , 87.8937275420447    ,246.4016094143192    ,152.23640201469016   ,-2.1993138581648397e-07 ,-1.3757231431372854e-05 ,-8.025748206091332e-07  ,      0.0 ,      0.0 ,      0.0 ,9.084547298373262e-07   ,-1.488561759416882e-05  ,      0.0 ,-1.397716300294931e-05  ,9.053272662137981e-06  ,0.5732550085034905   ,0.2946648442233249      ,-0.005997995722761869   ,-0.0033391805167947105  ,0.006388475128528773   ,-3.1676430553497203    ,0.0 ,-3.973368943820623    ,-23.19387943808092      ,        0.0 ,        0.0 , 0.0
 0.0 ,0.0 ,           0.0 ,            0.0 ,            0.0 ,            0.0 ,              0.0 ,                   0.0 ,1429.0 ,1.953125 ,0.0       ,           0.0 ,           0.0 ,       0.0 ,179.225        ,-17.9225    ,0.0              ,8.881784e-16     ,                 0.0 ,             0.0 ,             0.0 ,                 0.0 ,                 0.0 ,        0.0 ,0.0                    ,            0.0 ,            0.0 ,            0.0 ,              0.0 ,                   0.0 ,  0.0 ,0.0 ,  63.0526890076239   ,-19.13493555082592 ,0.0 ,-150.20647096360102 ,-301.8961131095082  ,-0.9660051654729485     ,-150.84806452398357 ,          0.0 ,          0.0 ,-149.69559048054901 ,-302.40699445125637 ,-150.84806452398357 ,-602.9506491411203  , 87.8937275420447    ,200.98354996185654  ,152.23640201469016   ,-195.62452991762592   ,-347.3141746533202  ,-0.9660051654729485     ,-196.26612436533654 ,          0.0 ,          0.0 ,-195.1136501735405   ,-347.8250543585413  ,-196.26612436533654 ,-739.204823850142   , 87.8937275420447    ,246.4016094143192    ,152.23640201469016   ,-2.1993138581648397e-07 ,-1.3757231431372854e-05 ,-8.025748206091332e-07  ,      0.0 ,      0.0 ,      0.0 ,9.084547298373262e-07   ,-1.488561759416882e-05  ,      0.0 ,-1.397716300294931e-05  ,9.053272662137981e-06  ,0.5732550085034905   ,0.2946648442233249      ,-0.005997995722761869   ,-0.0033391805167947105  ,0.006388475128528773   ,-3.1676430553497203    ,0.0 ,-3.973368943820623    ,-23.19387943808092      ,        0.0 ,        0.0 , 0.0
 0.0 ,0.0 ,           0.0 ,            0.0 ,            0.0 ,            0.0 ,              0.0 ,                   0.0 ,1430.0 ,0.0      ,0.0       ,           0.0 ,           0.0 ,       0.0 ,179.2193       ,-17.92193   ,-3.537007        ,-8.881784e-16    ,                 0.0 ,             0.0 ,             0.0 ,                 0.0 ,                 0.0 ,        0.0 ,0.0                    ,            0.0 ,            0.0 ,            0.0 ,              0.0 ,                   0.0 ,  0.0 ,0.0 ,  63.0526890076239   ,-19.13493555082592 ,0.0 ,-150.20647096360102 ,-301.8961131095082  ,-0.9660051654729485     ,-150.84806452398357 ,          0.0 ,          0.0 ,-149.69559048054901 ,-302.40699445125637 ,-150.84806452398357 ,-602.9506491411203  , 87.8937275420447    ,200.98354996185654  ,152.23640201469016   ,-195.62452991762592   ,-347.3141746533202  ,-0.9660051654729485     ,-196.26612436533654 ,          0.0 ,          0.0 ,-195.1136501735405   ,-347.8250543585413  ,-196.26612436533654 ,-739.204823850142   , 87.8937275420447    ,246.4016094143192    ,152.23640201469016   ,-2.1993138581648397e-07 ,-1.3757231431372854e-05 ,-8.025748206091332e-07  ,      0.0 ,      0.0 ,      0.0 ,9.084547298373262e-07   ,-1.488561759416882e-05  ,      0.0 ,-1.397716300294931e-05  ,9.053272662137981e-06  ,0.5732550085034905   ,0.2946648442233249      ,-0.005997995722761869   ,-0.0033391805167947105  ,0.006388475128528773   ,-3.1676430553497203    ,0.0 ,-3.973368943820623    ,-23.19387943808092      ,        0.0 ,        0.0 , 0.0
 0.0 ,0.0 ,           0.0 ,            0.0 ,            0.0 ,            0.0 ,              0.0 ,                   0.0 ,1431.0 ,74.6934  ,-21.0     ,           0.0 ,           0.0 ,       0.0 ,-23.69135      ,-18.63087   ,0.06476186       ,-0.0007387302    ,                 0.0 ,             0.0 ,             0.0 ,                 0.0 ,                 0.0 ,        0.0 ,3.32347592132425       ,            0.0 ,            0.0 ,            0.0 ,              0.0 ,                   0.0 ,  0.0 ,0.0 ,1453.5363373748914   ,1.0                ,0.0 ,-204.6538532342206  ,-408.5959617556708  ,57.854825808265055      ,-205.00203664195834 ,          0.0 ,          0.0 ,-188.96009256407854 ,-424.2897224258129  ,-205.00203664195834 ,-818.2518516318498  ,131.49094830481022   ,272.75061028641045  ,227.7489945603084    ,-227.60162846557026   ,-431.5437833539711  ,57.854825808265055      ,-227.94981187330802 ,          0.0 ,          0.0 ,-211.90791416237886  ,-447.2375440241132  ,-227.94981187330802 ,-887.0952700598001  ,131.49094830481022   ,295.69843188471077   ,227.7489945603084    ,-2.2768664680593798e-07 ,-1.4206449600834069e-05 ,9.145736215477289e-06   ,      0.0 ,      0.0 ,      0.0 ,1.1747819112003338e-06  ,-1.5608915634564057e-05 ,      0.0 ,-1.4434134096758014e-05 ,9.389777776002479e-06  ,1.0                  ,-0.004030153050125135   ,-1.2836400919338249e-05 ,0.0                     ,0.00403019677520087    ,-22.947814884343416    ,0.0 ,0.0                   ,0.0                     ,        0.0 ,        0.0 , 0.0
 0.0 ,0.0 ,           0.0 ,            0.0 ,            0.0 ,            0.0 ,              0.0 ,                   0.0 ,1432.0 ,74.96712 ,-21.95708 ,           0.0 ,           0.0 ,       0.0 ,-33.26635      ,-18.63044   ,-0.07319038      ,-0.005371449     ,                 0.0 ,             0.0 ,             0.0 ,                 0.0 ,                 0.0 ,        0.0 ,1.6231602684613353     ,            0.0 ,            0.0 ,            0.0 ,              0.0 ,                   0.0 ,  0.0 ,0.0 ,1434.92312054024     ,1.0                ,0.0 ,-215.1278097702358  ,-464.1468868665627  ,44.65430932581012       ,-229.7327221713294  ,          0.0 ,          0.0 ,-206.89375721122775 ,-472.3809976883876  ,-229.7327221713294  ,-909.0074770709448  ,147.15017143529758   ,303.0024921638163   ,254.87155407173043   ,-247.1166526769427    ,-496.13578803608635 ,44.65430932581012       ,-261.7215650780363  ,          0.0 ,          0.0 ,-238.8826001179346   ,-504.3698405950945  ,-261.7215650780363  ,-1004.974180579516  ,147.15017143529758   ,334.99133507052323   ,254.87155407173043   ,1.1252009913427827e-06  ,-1.870079223410989e-05  ,7.049102285866869e-06   ,      0.0 ,      0.0 ,      0.0 ,1.8325682354450477e-06  ,-1.940815927909467e-05  ,      0.0 ,-1.757559040913635e-05  ,1.1779161896568726e-05 ,0.8405356023961673   ,0.5806322763760762      ,-0.0013080970947128643  ,-1.0490377489398406e-05 ,0.0019959220124710665  ,-11.403758438081942    ,0.0 ,-20.583792928527544   ,-20.583792928527544     ,        0.0 ,        0.0 , 0.0
 0.0 ,0.0 ,           0.0 ,            0.0 ,            0.0 ,            0.0 ,              0.0 ,                   0.0 ,1433.0 ,75.41188 ,-22.84765 ,           0.0 ,           0.0 ,       0.0 ,-42.17973      ,-18.62968   ,-0.08543171      ,0.0007953682     ,                 0.0 ,             0.0 ,             0.0 ,                 0.0 ,                 0.0 ,        0.0 ,0.9176593786229386     ,            0.0 ,            0.0 ,            0.0 ,              0.0 ,                   0.0 ,  0.0 ,0.0 ,1428.8006532917416   ,1.0                ,0.0 ,-216.73549992655515 ,-470.4225011349564  ,34.199070103312316      ,-232.85088254149542 ,          0.0 ,          0.0 ,-212.13773847609048 ,-475.02030590616323 ,-232.85088254149542 ,-920.0089269237492  ,146.1966185464183    ,306.6696423079163   ,253.21992774782848   ,-257.79910850043404   ,-511.48617725217525 ,34.199070103312316      ,-273.91449111537435 ,          0.0 ,          0.0 ,-253.20134704996934  ,-516.0839144800422  ,-273.91449111537435 ,-1043.2000361772616 ,146.1966185464183    ,347.73325088179524   ,253.21992774782848   ,1.0483908774615966e-06  ,-1.377291828024051e-05  ,4.088509420453129e-06   ,      0.0 ,      0.0 ,      0.0 ,1.325314051177655e-06   ,-1.4049842180634503e-05 ,      0.0 ,-1.2724526485119534e-05 ,8.520073886948914e-06  ,0.7811257150325137   ,0.7568636285057202      ,-0.001662315995145627   ,-7.868808836064671e-05  ,0.0009105858295543684  ,-10.336608325490703    ,0.0 ,-30.725359699375957   ,-30.725359699375957     ,        0.0 ,        0.0 , 0.0
 0.0 ,0.0 ,           0.0 ,            0.0 ,            0.0 ,            0.0 ,              0.0 ,                   0.0 ,1434.0 ,76.01254 ,-23.64145 ,           0.0 ,           0.0 ,       0.0 ,-50.1286       ,-18.62859   ,-0.03217578      ,0.0006199771     ,                 0.0 ,             0.0 ,             0.0 ,                 0.0 ,                 0.0 ,        0.0 ,1.3759544502717516     ,            0.0 ,            0.0 ,            0.0 ,              0.0 ,                   0.0 ,  0.0 ,0.0 ,1426.221758185401    ,1.0                ,0.0 ,-222.04612901683478 ,-462.6721806748718  ,25.444700821649402      ,-230.95396741390567 ,          0.0 ,          0.0 ,-219.33448484964856 ,-465.383824842058   ,-230.95396741390567 ,-915.6722332815492  ,138.8535961934536    ,305.22409236853736  ,240.50143869773086   ,-271.54608920976375   ,-512.1722096655233  ,25.444700821649402      ,-280.45392760683455 ,          0.0 ,          0.0 ,-268.8344450425775   ,-514.8837850349869  ,-280.45392760683455 ,-1064.1724014030997 ,138.8535961934536    ,354.72405256146635   ,240.50143869773086   ,1.2843024522581961e-06  ,-1.0671097114184118e-05 ,2.727913205723444e-06   ,      0.0 ,      0.0 ,      0.0 ,1.439986161288584e-06   ,-1.082677981946177e-05  ,      0.0 ,-9.386793285971473e-06  ,6.706842298015805e-06  ,0.9035705159125094   ,0.309445926866171       ,-0.0007148169391106385  ,-6.814839502163358e-05  ,0.002577604230364612   ,-34.67481861072201     ,0.0 ,-14.824514056569406   ,-14.824514056569406     ,        0.0 ,        0.0 , 0.0
 0.0 ,0.0 ,           0.0 ,            0.0 ,            0.0 ,            0.0 ,              0.0 ,                   0.0 ,1435.0 ,76.74871 ,-24.31151 ,           0.0 ,           0.0 ,       0.0 ,-56.84286      ,-18.62722   ,-0.01095661      ,-0.005097876     ,                 0.0 ,             0.0 ,             0.0 ,                 0.0 ,                 0.0 ,        0.0 ,1.1415976120873        ,            0.0 ,            0.0 ,            0.0 ,              0.0 ,                   0.0 ,  0.0 ,0.0 ,1430.2169246623894   ,1.0                ,0.0 ,-227.51637392574642 ,-464.22746194212505 ,20.560603751000613      ,-232.73868121431423 ,          0.0 ,          0.0 ,-225.7432622714466  ,-466.0005094967804  ,-232.73868121431423 ,-924.4824594412355  ,136.7380161361628    ,308.1608531470785   ,236.83714661476102   ,-283.1604462079811    ,-519.8715277656655  ,20.560603751000613      ,-288.38275349654896 ,          0.0 ,          0.0 ,-281.38733455368134  ,-521.6445817790152  ,-288.38275349654896 ,-1091.41489156984   ,136.7380161361628    ,363.8048830702634    ,236.83714661476102   ,1.4220704817964586e-06  ,-1.4415397478364984e-05 ,2.904504255869646e-06   ,      0.0 ,      0.0 ,      0.0 ,1.5557062384736978e-06  ,-1.4549031799027998e-05 ,      0.0 ,-1.2993324160608918e-05 ,8.886880598727907e-06  ,0.7634909341150857   ,0.6396544198899353      ,-0.0014356851014165363  ,-8.726254032837539e-05  ,0.0013424801577884993  ,-19.67287338824174     ,0.0 ,-35.96980741215973    ,-35.96980741215973      ,        0.0 ,        0.0 , 0.0
 0.0 ,0.0 ,           0.0 ,            0.0 ,            0.0 ,            0.0 ,              0.0 ,                   0.0 ,1436.0 ,77.59537 ,-24.83505 ,           0.0 ,           0.0 ,       0.0 ,-62.09439      ,-18.62561   ,-0.01861653      ,0.00707741       ,                 0.0 ,             0.0 ,             0.0 ,                 0.0 ,                 0.0 ,        0.0 ,1.2094737140542513     ,            0.0 ,            0.0 ,            0.0 ,              0.0 ,                   0.0 ,  0.0 ,0.0 ,1430.8550232889866   ,1.0                ,0.0 ,-227.97379391656773 ,-461.92365713077993 ,15.453870643542864      ,-231.75432348839    ,          0.0 ,          0.0 ,-226.90845388879296 ,-462.9889181059261  ,-231.75432348839    ,-921.651706363346   ,134.9258263366394    ,307.21722333952084  ,233.69836980021734   ,-288.2564463225538    ,-522.2062777091577  ,15.453870643542864      ,-292.0369968417475  ,          0.0 ,          0.0 ,-287.1911535197993   ,-523.2715705119122  ,-292.0369968417475  ,-1102.4998001457695 ,134.9258263366394    ,367.49986486527007   ,233.69836980021734   ,1.5915538940853972e-06  ,-1.9707476391419856e-05 ,3.092463458075358e-06   ,      0.0 ,      0.0 ,      0.0 ,1.7056443728268819e-06  ,-1.9821566557819464e-05 ,      0.0 ,-1.811592038413845e-05  ,1.1968471581326257e-05 ,0.7028477405724443   ,0.7897386450903754      ,-0.0017867222506875607  ,-6.385108914550605e-05  ,0.0007880679722760632  ,-11.681207128727914    ,0.0 ,-48.59969107362926    ,-48.59969107362926      ,        0.0 ,        0.0 , 0.0
 0.0 ,0.0 ,           0.0 ,            0.0 ,            0.0 ,            0.0 ,              0.0 ,                   0.0 ,1437.0 ,78.52374 ,-25.19429 ,           0.0 ,           0.0 ,       0.0 ,-65.70484      ,-18.62381   ,-0.00528962      ,-0.00061894      ,                 0.0 ,             0.0 ,             0.0 ,                 0.0 ,                 0.0 ,        0.0 ,2.1246193726363547     ,            0.0 ,            0.0 ,            0.0 ,              0.0 ,                   0.0 ,  0.0 ,0.0 ,1445.358378520433    ,1.0                ,0.0 ,-227.98148586678562 ,-457.05594796365824 ,8.824703709574637       ,-229.9237346443697  ,          0.0 ,          0.0 ,-227.6117761828295  ,-457.4256215003049  ,-229.9237346443697  ,-914.9611323275041  ,132.02253585765266   ,304.9870269789169   ,228.6698040629399    ,-293.1784643828318    ,-522.2529264797045  ,8.824703709574637       ,-295.12071316041585 ,          0.0 ,          0.0 ,-292.8087908461852   ,-522.622600016351   ,-295.12071316041585 ,-1110.5519677782338 ,132.02253585765266   ,370.1840054949632    ,228.6698040629399    ,2.0923260126872213e-06  ,-1.4323400136989977e-05 ,2.4448779114154134e-06  ,      0.0 ,      0.0 ,      0.0 ,2.1879683812051425e-06  ,-1.4419043104808804e-05 ,      0.0 ,-1.2231075638210288e-05 ,9.046060724209343e-06  ,0.8010273743747459   ,0.5110564183768832      ,-0.0015315662670013523  ,-5.464158465922849e-05  ,0.0028550796628356635  ,-33.702023731221004    ,0.0 ,-31.493566459495234   ,-31.493566459495234     ,        0.0 ,        0.0 , 0.0
 0.0 ,0.0 ,           0.0 ,            0.0 ,            0.0 ,            0.0 ,              0.0 ,                   0.0 ,1438.0 ,79.50227 ,-25.37701 ,           0.0 ,           0.0 ,       0.0 ,-67.55169      ,-18.62184   ,0.001418121      ,-0.0006655812    ,                 0.0 ,             0.0 ,             0.0 ,                 0.0 ,                 0.0 ,        0.0 ,1.809968789948463      ,            0.0 ,            0.0 ,            0.0 ,              0.0 ,                   0.0 ,  0.0 ,0.0 ,1419.4907558390214   ,1.0                ,0.0 ,-230.1069911904599  ,-457.7431319603958  ,4.106216106100313       ,-230.73240428840245 ,          0.0 ,          0.0 ,-230.01872202321817 ,-457.83140112763755 ,-230.73240428840245 ,-918.5825572184056  ,131.32280562959127   ,306.19418573946854  ,227.4578142858462    ,-297.7138631022321    ,-525.3500633169944  ,4.106216106100313       ,-298.33930597932203 ,          0.0 ,          0.0 ,-297.62559393499043  ,-525.4383028185572  ,-298.33930597932203 ,-1121.4029321716116 ,131.32280562959127   ,373.8010576512408    ,227.4578142858462    ,1.4293737264770881e-06  ,-8.220041170010429e-06  ,1.3219163747033464e-06  ,      0.0 ,      0.0 ,      0.0 ,1.4829884356911172e-06  ,-8.273655691462618e-06  ,      0.0 ,-6.790666662457923e-06  ,5.272778345535764e-06  ,1.0                  ,-0.004120673369437982   ,-0.00030714227810641994 ,0.0                     ,0.00413708889389455    ,-67.60687568970275     ,0.0 ,0.0                   ,0.0                     ,        0.0 ,        0.0 , 0.0
 0.0 ,0.0 ,           0.0 ,            0.0 ,            0.0 ,            0.0 ,              0.0 ,                   0.0 ,1439.0 ,80.49773 ,-25.37701 ,           0.0 ,           0.0 ,       0.0 ,-67.57243      ,-18.61977   ,0.01676119       ,0.005179712      ,                 0.0 ,             0.0 ,             0.0 ,                 0.0 ,                 0.0 ,        0.0 ,2.2381455779092203     ,            0.0 ,            0.0 ,            0.0 ,              0.0 ,                   0.0 ,  0.0 ,0.0 ,1418.1849748306129   ,1.0                ,0.0 ,-232.80681944097313 ,-464.22923962849893 ,-0.7103064671619371     ,-233.8440564213285  ,          0.0 ,          0.0 ,-232.76505255903564 ,-464.27100651043645 ,-233.8440564213285  ,-930.8801154908006  ,133.35071360737774   ,310.2933718302669   ,230.97026319721977   ,-299.9377545541496    ,-531.3602227661924  ,-0.7103064671619371     ,-300.97496337357967 ,          0.0 ,          0.0 ,-299.8959876722121   ,-531.4019416236129  ,-300.97496337357967 ,-1132.2730529422215 ,133.35071360737774   ,377.4243069434433    ,230.97026319721977   ,1.8792937246792625e-06  ,-1.3565712276533568e-05 ,1.039177107080735e-06   ,      0.0 ,      0.0 ,      0.0 ,1.901043000679972e-06   ,-1.3587460028825435e-05 ,      0.0 ,-1.168641775731064e-05  ,8.465666711697387e-06  ,0.8885878605464013   ,0.2783875216650755      ,-0.0012760687744904791  ,-6.165184077046381e-05  ,0.0032282846925415333  ,-49.90287733771868     ,0.0 ,-17.226987029152962   ,-17.226987029152962     ,        0.0 ,        0.0 , 0.0
 0.0 ,0.0 ,           0.0 ,            0.0 ,            0.0 ,            0.0 ,              0.0 ,                   0.0 ,1440.0 ,81.47626 ,-25.19429 ,           0.0 ,           0.0 ,       0.0 ,-65.76662      ,-18.61763   ,-0.002348986     ,-0.009225779     ,                 0.0 ,             0.0 ,             0.0 ,                 0.0 ,                 0.0 ,        0.0 ,1.635880440085722      ,            0.0 ,            0.0 ,            0.0 ,              0.0 ,                   0.0 ,  0.0 ,0.0 ,1426.456043738127    ,1.0                ,0.0 ,-233.66651281025167 ,-468.84679752467196 ,-7.749552527692283      ,-236.30985095996735 ,          0.0 ,          0.0 ,-233.38161468135797 ,-469.1317190609844  ,-236.30985095996735 ,-938.8231847023097  ,135.27303034474633   ,312.9410464105526   ,234.29973583585715   ,-299.8929873534101    ,-535.073273412016   ,-7.749552527692283      ,-302.5363268473114  ,          0.0 ,          0.0 ,-299.60806716128326  ,-535.3581936041428  ,-302.5363268473114  ,-1137.5026277933625 ,135.27303034474633   ,379.167520953711     ,234.29973583585715   ,1.5599712253179044e-06  ,-4.407511772711959e-06  ,7.13247143638255e-07    ,      0.0 ,      0.0 ,      0.0 ,1.5812076798976171e-06  ,-4.428748227291672e-06  ,      0.0 ,-2.8475405473940546e-06 ,3.11538107067537e-06   ,0.8235613263130483   ,0.45146969495393297     ,-0.001209542825915677   ,-0.00023146956721332963 ,0.0032455197220320293  ,-37.88059868560808     ,0.0 ,-28.344866780799272   ,-28.344866780799272     ,        0.0 ,        0.0 , 0.0
 0.0 ,0.0 ,           0.0 ,            0.0 ,            0.0 ,            0.0 ,              0.0 ,                   0.0 ,1441.0 ,82.40463 ,-24.83505 ,           0.0 ,           0.0 ,       0.0 ,-62.19592      ,-18.61546   ,0.006490252      ,0.001932231      ,                 0.0 ,             0.0 ,             0.0 ,                 0.0 ,                 0.0 ,        0.0 ,1.9669239824388334     ,            0.0 ,            0.0 ,            0.0 ,              0.0 ,                   0.0 ,  0.0 ,0.0 ,1430.1109651430943   ,1.0                ,0.0 ,-232.49349655185063 ,-470.90237135598136 ,-15.06190485187268      ,-236.55359042797886 ,          0.0 ,          0.0 ,-231.47715925876392 ,-471.9187426014385  ,-236.55359042797886 ,-939.9494431150817  ,137.38051106482413   ,313.31644770502726  ,237.94997023042401   ,-293.81149597795905   ,-532.2203878599303  ,-15.06190485187268      ,-297.8716069319278  ,          0.0 ,          0.0 ,-292.7950926372428   ,-533.2367420275469  ,-297.8716069319278  ,-1123.9033568174466 ,137.38051106482413   ,374.63444713113563   ,237.94997023042401   ,2.483938310649806e-07   ,-8.990912787236985e-06  ,-1.1945153931900816e-06 ,      0.0 ,      0.0 ,      0.0 ,2.868424251310024e-07   ,-9.029361233783708e-06  ,      0.0 ,-8.742519792114697e-06  ,5.2978507389795245e-06 ,0.6222951039511406   ,1.0                     ,-0.0023706595771423073  ,-0.00036953105070616375 ,0.0                    ,0.002406316881405793   ,0.0 ,-61.31798611219561    ,-61.31798611219561      ,        0.0 ,        0.0 , 0.0
 0.0 ,0.0 ,           0.0 ,            0.0 ,            0.0 ,            0.0 ,              0.0 ,                   0.0 ,1442.0 ,83.25129 ,-24.31151 ,           0.0 ,           0.0 ,       0.0 ,-56.98192      ,-18.61332   ,0.01414134       ,-0.002865215     ,                 0.0 ,             0.0 ,             0.0 ,                 0.0 ,                 0.0 ,        0.0 ,3.5938746360331386     ,            0.0 ,            0.0 ,            0.0 ,              0.0 ,                   0.0 ,  0.0 ,0.0 ,1427.938230903832    ,1.0                ,0.0 ,-230.35182655918018 ,-472.0072771351355  ,-20.902986723270544     ,-236.29608206799435 ,          0.0 ,          0.0 ,-228.54791621731385 ,-473.8111671707336  ,-236.29608206799435 ,-938.6551711310249  ,139.42034294123985   ,312.8850521665799   ,241.48309488861753   ,-285.74968085498017   ,-527.4050988997122  ,-20.902986723270544     ,-291.69392413883924 ,          0.0 ,          0.0 ,-283.94574365687356  ,-529.2090417728018  ,-291.69392413883924 ,-1104.8489006122124 ,139.42034294123985   ,368.2828739311566    ,241.48309488861753   ,7.005114637101197e-07   ,-1.7120067994100898e-05 ,-2.43989763913794e-06   ,      0.0 ,      0.0 ,      0.0 ,7.901070244985582e-07   ,-1.720966595871257e-05  ,      0.0 ,-1.6419558568339907e-05 ,1.017392070395073e-05  ,0.826806299118104    ,0.46997178919855975     ,-0.001367074107097781   ,-0.00010372247694424193 ,0.0016586855498935218  ,-27.440503255156912    ,0.0 ,-27.956090981498797   ,-27.956090981498797     ,        0.0 ,        0.0 , 0.0
 0.0 ,0.0 ,           0.0 ,            0.0 ,            0.0 ,            0.0 ,              0.0 ,                   0.0 ,1443.0 ,83.98746 ,-23.64145 ,           0.0 ,           0.0 ,       0.0 ,-50.30193      ,-18.61126   ,0.03779959       ,0.002010338      ,                 0.0 ,             0.0 ,             0.0 ,                 0.0 ,                 0.0 ,        0.0 ,3.4546219678593        ,            0.0 ,            0.0 ,            0.0 ,              0.0 ,                   0.0 ,  0.0 ,0.0 ,1419.3288866596602   ,0.9999999999999999 ,0.0 ,-221.73683296423056 ,-468.1941234880012  ,-25.83048204551516      ,-233.05753602043583 ,          0.0 ,          0.0 ,-219.0202655160055  ,-470.910709896438   ,-233.05753602043583 ,-922.9885189746526  ,141.58062187419955   ,307.6628484922125   ,245.2248560248077    ,-270.52416306094386   ,-516.9814270827295  ,-25.83048204551516      ,-281.8448668840657  ,          0.0 ,          0.0 ,-267.807576652507    ,-519.6980210329396  ,-281.8448668840657  ,-1069.3506986132707 ,141.58062187419955   ,356.45015208694076   ,245.2248560248077    ,5.543227111392126e-07   ,-1.6555915749711402e-05 ,-2.504963152665173e-06  ,      0.0 ,      0.0 ,      0.0 ,6.534466326545067e-07   ,-1.6655041958385594e-05 ,      0.0 ,-1.6001594059516353e-05 ,9.814271994622857e-06  ,0.858184613130821    ,0.46052349914893137     ,-0.0013872447328219482  ,-0.00011214628156740887 ,0.0017730804442351866  ,-27.555206418812826    ,0.0 ,-21.23084051567456    ,-21.23084051567456      ,        0.0 ,        0.0 , 0.0
 0.0 ,0.0 ,           0.0 ,            0.0 ,            0.0 ,            0.0 ,              0.0 ,                   0.0 ,1444.0 ,84.58812 ,-22.84765 ,           0.0 ,           0.0 ,       0.0 ,-42.38284      ,-18.60937   ,0.09001487       ,0.001542693      ,                 0.0 ,             0.0 ,             0.0 ,                 0.0 ,                 0.0 ,        0.0 ,3.322749393411266      ,            0.0 ,            0.0 ,            0.0 ,              0.0 ,                   0.0 ,  0.0 ,0.0 ,1416.2214119028818   ,1.0                ,0.0 ,-217.27189382630087 ,-470.3555131225005  ,-34.00694941590858      ,-233.47751483779535 ,          0.0 ,          0.0 ,-212.73538269541055 ,-474.8920565283301  ,-233.47751483779535 ,-921.1049217865967  ,145.77115887731105   ,307.03498684706875  ,252.48309690385958   ,-259.73966463617904   ,-512.8232839323787  ,-34.00694941590858      ,-275.94528564767353 ,          0.0 ,          0.0 ,-255.2030824757398   ,-517.359795063269   ,-275.94528564767353 ,-1048.5080791977925 ,145.77115887731105   ,349.50271890233734   ,252.48309690385958   ,1.2049079558931224e-06  ,-9.276373697835882e-06  ,-5.287002057533183e-07  ,      0.0 ,      0.0 ,      0.0 ,1.2545395821828376e-06  ,-9.326005108653447e-06  ,      0.0 ,-8.07146546192073e-06   ,5.8198269873748e-06    ,0.9009913304810423   ,0.31848942910374894     ,-0.0012275526283029115  ,-7.829512984885215e-05  ,0.004274778676798893   ,-27.644527547048014    ,0.0 ,-14.822349807254671   ,-14.822349807254671     ,        0.0 ,        0.0 , 0.0
 0.0 ,0.0 ,           0.0 ,            0.0 ,            0.0 ,            0.0 ,              0.0 ,                   0.0 ,1445.0 ,85.03288 ,-21.95708 ,           0.0 ,           0.0 ,       0.0 ,-33.49343      ,-18.60773   ,0.06466872       ,-0.006972006     ,                 0.0 ,             0.0 ,             0.0 ,                 0.0 ,                 0.0 ,        0.0 ,2.8519006963829905     ,            0.0 ,            0.0 ,            0.0 ,              0.0 ,                   0.0 ,  0.0 ,0.0 ,1414.9717657975161   ,1.0                ,0.0 ,-214.6180471872196  ,-462.86720785150953 ,-43.283501107212395     ,-230.00617549141833 ,          0.0 ,          0.0 ,-206.951447106788   ,-470.533807931941   ,-230.00617549141833 ,-907.4914305301473  ,145.9998794778346    ,302.49714670333424  ,252.87922849102597   ,-248.83990078258435   ,-497.08903104673226 ,-43.283501107212395     ,-264.22802908678307 ,          0.0 ,          0.0 ,-241.17321551208312  ,-504.7556615273058  ,-264.22802908678307 ,-1010.1567113562471 ,145.9998794778346    ,336.71894550877136   ,252.87922849102597   ,1.2950409715205601e-06  ,-6.2775631541954205e-06 ,-5.239657353046192e-07  ,      0.0 ,      0.0 ,      0.0 ,1.3867505742206757e-06  ,-6.369271868299714e-06  ,      0.0 ,-4.982521708757089e-06  ,4.154443332141047e-06  ,0.8555757091655095   ,0.4486331003150371      ,-0.0028514184568246954  ,-0.0001816189675052772  ,0.003480395917976001   ,-21.15346383302632     ,0.0 ,-13.06580815686403    ,-13.06580815686403      ,        0.0 ,        0.0 , 0.0
 0.0 ,0.0 ,           0.0 ,            0.0 ,            0.0 ,            0.0 ,              0.0 ,                   0.0 ,1446.0 ,85.3066  ,-21.0     ,           0.0 ,           0.0 ,       0.0 ,-23.93528      ,-18.60647   ,-0.06265567      ,-0.002967227     ,                 0.0 ,             0.0 ,             0.0 ,                 0.0 ,                 0.0 ,        0.0 ,1.6664837415942708     ,            0.0 ,            0.0 ,            0.0 ,              0.0 ,                   0.0 ,  0.0 ,0.0 ,1434.3040490100332   ,1.0                ,0.0 ,-204.77589436961424 ,-413.25935330929764 ,-57.1815299474334       ,-206.95890027219738 ,          0.0 ,          0.0 ,-189.87136491102646 ,-428.1638658863881  ,-206.95890027219738 ,-824.994131069612   ,132.92678795168086   ,274.99801035653735  ,230.2359471291103    ,-227.50656133384598   ,-435.9900536251552  ,-57.1815299474334       ,-229.68960058805496 ,          0.0 ,          0.0 ,-212.60203187525826  ,-450.89453285061984 ,-229.68960058805496 ,-893.1861821954302  ,132.92678795168086   ,297.7287275538921    ,230.2359471291103    ,-5.50738919822189e-07   ,-1.3936245761253955e-05 ,-6.228469687945101e-06  ,      0.0 ,      0.0 ,      0.0 ,1.5745261572995548e-07  ,-1.4644434855130462e-05 ,      0.0 ,-1.4486981357542485e-05 ,8.502950649152716e-06  ,0.6924625385426781   ,1.0                     ,-0.003548117522364363   ,-0.00022760999165171656 ,0.0                    ,0.0035554779878297187  ,0.0 ,-22.730695328194383   ,-22.730695328194383     ,        0.0 ,        0.0 , 0.0
 0.0 ,0.0 ,           0.0 ,            0.0 ,            0.0 ,            0.0 ,              0.0 ,                   0.0 ,1447.0 ,85.4     ,-20.00706 ,           0.0 ,           0.0 ,       0.0 ,-14.01364      ,-18.60569   ,-0.1065053       ,-0.00408923      ,                 0.0 ,             0.0 ,             0.0 ,                 0.0 ,                 0.0 ,        0.0 ,2.088223425969505      ,            0.0 ,            0.0 ,            0.0 ,              0.0 ,                   0.0 ,  0.0 ,0.0 ,1443.2052158533866   ,1.0                ,0.0 ,-188.58130402121105 ,-365.77297710784217 ,-46.36280382355567      ,-184.5035541306155  ,          0.0 ,          0.0 ,-176.7902447650069  ,-377.5640176457166  ,-184.5035541306155  ,-738.8578352596687  ,113.79601217613447   ,246.28591175322288  ,197.10047435593532   ,-202.19694998658133   ,-379.3886873803708  ,-46.36280382355567      ,-198.11926440314423 ,          0.0 ,          0.0 ,-190.4059094487069   ,-391.17968232941655 ,-198.11926440314423 ,-779.7048561812676  ,113.79601217613447   ,259.90162202575164   ,197.10047435593532   ,-8.442258254930326e-07  ,-9.784321765051987e-06  ,-3.5000492538669236e-06 ,      0.0 ,      0.0 ,      0.0 ,-2.9219735165537566e-07 ,-1.0336351381831296e-05 ,      0.0 ,-1.0628544892651958e-05 ,5.904758272866852e-06  ,0.7090606136236093   ,0.8115790769754514      ,-0.0035617511653060836  ,-0.00020654776405970473 ,0.001238935919241678   ,-2.1565619030012497    ,0.0 ,-11.45561550778515    ,-11.45561550778515      ,        0.0 ,        0.0 , 0.0
 0.0 ,0.0 ,           0.0 ,            0.0 ,            0.0 ,            0.0 ,              0.0 ,                   0.0 ,1448.0 ,85.3092  ,-19.01387 ,           0.0 ,           0.0 ,       0.0 ,-4.083834      ,-18.60549   ,-0.09031317      ,-0.003745409     ,                 0.0 ,             0.0 ,             0.0 ,                 0.0 ,                 0.0 ,        0.0 ,2.3620901471067315     ,            0.0 ,            0.0 ,            0.0 ,              0.0 ,                   0.0 ,  0.0 ,0.0 ,1438.9938560059268   ,1.0                ,0.0 ,-181.03264937651704 ,-349.9633735939435  ,-33.8186237509566       ,-176.62272195296538 ,          0.0 ,          0.0 ,-174.43275669259828 ,-356.5632430067552  ,-176.62272195296538 ,-707.6187216523189  ,104.54282489661271   ,235.8728932312379   ,181.07349018115997   ,-185.24229342152844   ,-354.17304665965224 ,-33.8186237509566       ,-180.8324182897813  ,          0.0 ,          0.0 ,-178.6424530294142   ,-360.7729103228736  ,-180.8324182897813  ,-720.2477293502645  ,104.54282489661271   ,240.08256054735637   ,181.07349018115997   ,-1.1204691952676618e-06 ,-4.683640886203483e-06  ,-2.501769985248185e-07  ,      0.0 ,      0.0 ,      0.0 ,-1.0290852209046604e-06 ,-4.775023410761959e-06  ,      0.0 ,-5.804108685204722e-06  ,2.5139807812783393e-06 ,0.7774683462104189   ,0.47585366079343555     ,-0.0032332678319610796  ,-0.00019153390164566977 ,0.0012321223432432314  ,0.8139552300282623     ,0.0 ,-4.956833804373593    ,-4.956833804373593      ,        0.0 ,        0.0 , 0.0
 0.0 ,0.0 ,           0.0 ,            0.0 ,            0.0 ,            0.0 ,              0.0 ,                   0.0 ,1449.0 ,85.0373  ,-18.05433 ,           0.0 ,           0.0 ,       0.0 ,5.515959       ,-18.60592   ,-0.06711932      ,-0.005537934     ,                 0.0 ,             0.0 ,             0.0 ,                 0.0 ,                 0.0 ,        0.0 ,1.3421907638478574     ,            0.0 ,            0.0 ,            0.0 ,              0.0 ,                   0.0 ,  0.0 ,0.0 ,1448.0949065495734   ,1.0                ,0.0 ,-173.1908901147612  ,-345.3294457759142  ,-29.853374942827553     ,-173.0025607229566  ,          0.0 ,          0.0 ,-168.110768780315   ,-350.40954996473914 ,-173.0025607229566  ,-691.5229122863063  ,103.87536306158108   ,230.50764839225607  ,179.91739248235868   ,-170.4835257320688    ,-342.6221314293049  ,-29.853374942827553     ,-170.29526352196854 ,          0.0 ,          0.0 ,-165.40347157932695  ,-347.70220272766807 ,-170.29526352196854 ,-683.4008706472592  ,103.87536306158108   ,227.80030115518497   ,179.91739248235868   ,-1.0657384552377571e-06 ,-2.477451539944802e-06  ,-1.7273796800976373e-07 ,      0.0 ,      0.0 ,      0.0 ,-6.492610593341398e-07  ,-2.8939283411137215e-06 ,      0.0 ,-3.543189261809945e-06  ,1.520853085757397e-06  ,0.8302532437005268   ,0.10423821075187982     ,-0.00015899336569496426 ,-2.0312398398001238e-06 ,0.0014983196843622584  ,1.262711132395734      ,0.0 ,4.8217887102692725    ,1.5534254739151727      ,        0.0 ,        0.0 , 0.0
 0.0 ,0.0 ,           0.0 ,            0.0 ,            0.0 ,            0.0 ,              0.0 ,                   0.0 ,1450.0 ,84.59357 ,-17.16115 ,           0.0 ,           0.0 ,       0.0 ,14.45704       ,-18.60685   ,-0.03783022      ,-0.001388261     ,                 0.0 ,             0.0 ,             0.0 ,                 0.0 ,                 0.0 ,        0.0 ,1.9796499754336343     ,            0.0 ,            0.0 ,            0.0 ,              0.0 ,                   0.0 ,  0.0 ,0.0 ,1463.4778643871682   ,0.9999999999999999 ,0.0 ,-162.7542937878125  ,-333.65817537032524 ,-25.03055199648467      ,-166.49904283132057 ,          0.0 ,          0.0 ,-159.1469649287273  ,-337.2655042294105  ,-166.49904283132057 ,-662.9115982398205  ,100.78273950250271   ,220.9705306245841   ,174.560848109799     ,-158.0074893031938    ,-328.9113708857066  ,-25.03055199648467      ,-161.75223834670186 ,          0.0 ,          0.0 ,-154.40016044410862  ,-332.5187134944296  ,-161.75223834670186 ,-648.6710985356023  ,100.78273950250271   ,216.22372613996538   ,174.560848109799     ,-1.7449796480860618e-06 ,-8.43102458404846e-07   ,8.092293568645118e-07   ,      0.0 ,      0.0 ,      0.0 ,-6.210817629068516e-07  ,-1.9670010654172954e-06 ,      0.0 ,-2.5880828827441678e-06 ,1.0056145104873653e-06 ,0.6297791678039664   ,0.3132978171107388      ,-0.00013581359243242593 ,-5.629688405702128e-06  ,0.0                    ,0.00013593729964151162 ,0.0 ,15.254728675320536    ,4.746814047209236       ,        0.0 ,        0.0 , 0.0
 0.0 ,0.0 ,           0.0 ,            0.0 ,            0.0 ,            0.0 ,              0.0 ,                   0.0 ,1451.0 ,83.99316 ,-16.36481 ,           0.0 ,           0.0 ,       0.0 ,22.43425       ,-18.60823   ,-0.03812356      ,-0.004671076     ,                 0.0 ,             0.0 ,             0.0 ,                 0.0 ,                 0.0 ,        0.0 ,3.160504630387761      ,            0.0 ,            0.0 ,            0.0 ,              0.0 ,                   0.0 ,  0.0 ,0.0 ,1447.1598583574146   ,1.0                ,0.0 ,-147.68925525387615 ,-316.1481669603905  ,-18.81206257162927      ,-156.7286015587959  ,          0.0 ,          0.0 ,-145.60118926382745 ,-318.2362912678058  ,-156.7286015587959  ,-620.5660820904293  , 96.62163454106508   ,206.85535379839337  ,167.35358159374698   ,-142.80708268969593   ,-311.26599439621026 ,-18.81206257162927      ,-151.84642899461568 ,          0.0 ,          0.0 ,-140.71895838228053  ,-313.3541020688923  ,-151.84642899461568 ,-605.9195060805218  , 96.62163454106508   ,201.97318123421311   ,167.35358159374698   ,-2.375055036195465e-06  ,-5.336749827374921e-07  ,-1.032699583261151e-06  ,      0.0 ,      0.0 ,      0.0 ,-3.9357627828364704e-07 ,-2.515153960760289e-06  ,      0.0 ,-2.9087299606155906e-06 ,1.3565023131547875e-06 ,0.37096116107894506  ,0.1076826835810766      ,-1.9631213949085596e-05 ,-8.302280282647125e-07  ,8.901078810233985e-06  ,16.05633581697543      ,0.0 ,7.806189703603579     ,2.0132447102652096      ,        0.0 ,        0.0 , 0.0
 0.0 ,0.0 ,           0.0 ,            0.0 ,            0.0 ,            0.0 ,              0.0 ,                   0.0 ,1452.0 ,83.25655 ,-15.69246 ,           0.0 ,           0.0 ,       0.0 ,29.17533       ,-18.60999   ,-0.02202996      ,-0.01454349      ,                 0.0 ,             0.0 ,             0.0 ,                 0.0 ,                 0.0 ,        0.0 ,3.6780185264086978     ,            0.0 ,            0.0 ,            0.0 ,              0.0 ,                   0.0 ,  0.0 ,0.0 ,1432.5602839730157   ,0.9999999999999999 ,0.0 ,-139.8024946763686  ,-306.2671188498254  ,-15.394659821798545     ,-151.20032461041984 ,          0.0 ,          0.0 ,-138.38775008564463 ,-307.6818723129481  ,-151.20032461041984 ,-597.2700059384665  , 94.26156627341743   ,199.0900127122046   ,163.26579030812388   ,-134.87828015700705   ,-301.34284540101    ,-15.394659821798545     ,-146.27607789291096 ,          0.0 ,          0.0 ,-133.46343556628307  ,-302.7576489211878  ,-146.27607789291096 ,-582.4971445214741  , 94.26156627341743   ,194.1657070652418    ,163.26579030812388   ,-2.529563832146824e-06  ,-8.381837080183282e-08  ,2.5270903616685786e-07  ,      0.0 ,      0.0 ,      0.0 ,3.362599805318489e-07   ,-2.949642683594616e-06  ,      0.0 ,-2.6133821564112695e-06 ,1.8528711684743424e-06 ,0.16989168026511334  ,-2.7094047567962937e-05 ,-1.2998422531118718e-06 ,0.0                     ,2.713945982941589e-05  ,30.108082107979854     ,0.0 ,0.0                   ,0.0                     ,        0.0 ,        0.0 , 0.0
 0.0 ,0.0 ,           0.0 ,            0.0 ,            0.0 ,            0.0 ,              0.0 ,                   0.0 ,1453.0 ,82.40885 ,-15.16704 ,           0.0 ,           0.0 ,       0.0 ,34.44992       ,-18.61204   ,-0.03077239      ,0.008866528      ,                 0.0 ,             0.0 ,             0.0 ,                 0.0 ,                 0.0 ,        0.0 ,1.1905279618238171     ,            0.0 ,            0.0 ,            0.0 ,              0.0 ,                   0.0 ,  0.0 ,0.0 ,1428.665647235703    ,1.0                ,0.0 ,-132.59237530719298 ,-298.1313503411883  ,-10.812653481032966     ,-146.54067096763532 ,          0.0 ,          0.0 ,-131.8427014457328  ,-298.8809804460155  ,-146.54067096763532 ,-577.264417552493   , 92.49258025486421   ,192.42149887200551  ,160.201827499634     ,-127.64253550211563   ,-293.18148114989225 ,-10.812653481032966     ,-141.5908664694486  ,          0.0 ,          0.0 ,-126.8928407041791   ,-293.9311759478288  ,-141.5908664694486  ,-562.41486218498    , 92.49258025486421   ,187.47159437381885   ,160.201827499634     ,-1.471669273373622e-06  ,-1.9153347597389172e-07 ,-3.773229256436147e-07  ,      0.0 ,      0.0 ,      0.0 ,-1.593317659723023e-07  ,-1.5038712149147417e-06 ,      0.0 ,-1.6632028055908808e-06 ,8.267093620264536e-07  ,0.31937029755714497  ,0.055540509426453       ,-3.823727228142042e-06  ,-4.055264723534546e-07  ,3.934776235247685e-06  ,24.478682741228706     ,0.0 ,11.081706685259078    ,1.7433621093180376      ,        0.0 ,        0.0 , 0.0
 0.0 ,0.0 ,           0.0 ,            0.0 ,            0.0 ,            0.0 ,              0.0 ,                   0.0 ,1454.0 ,81.47898 ,-14.80648 ,           0.0 ,           0.0 ,       0.0 ,38.07807       ,-18.61429   ,0.0005944533     ,0.003535778      ,                 0.0 ,             0.0 ,             0.0 ,                 0.0 ,                 0.0 ,        0.0 ,1.0168684072766516     ,            0.0 ,            0.0 ,            0.0 ,              0.0 ,                   0.0 ,  0.0 ,0.0 ,1433.837995937024    ,1.0                ,0.0 ,-127.10565816055441 ,-291.5374777629104  ,-6.164567960346261      ,-142.79302956795206 ,          0.0 ,          0.0 ,-126.84983364478761 ,-291.7932149331878  ,-142.79302956795206 ,-561.4361336297625  , 90.97788724936584   ,187.14538996881788  ,157.57832580975412   ,-122.1482241387882    ,-286.5799882573092  ,-6.164567960346261      ,-137.83559554618586 ,          0.0 ,          0.0 ,-121.89239962302138  ,-286.835812773076   ,-137.83559554618586 ,-546.5638079422832  , 90.97788724936584   ,182.1879323248711    ,157.57832580975412   ,-1.0231425899606681e-06 ,1.545188070755383e-07   ,6.682197162430152e-07   ,      0.0 ,      0.0 ,      0.0 ,2.5862256633314374e-07  ,-1.1272462981494755e-06 ,      0.0 ,-8.686239736043007e-07  ,7.410784716155286e-07  ,0.3004406354275978   ,0.04464490979322348     ,-4.05269414744293e-06   ,-4.6314897336576486e-07 ,4.3227176116342e-06    ,26.98748718072101      ,0.0 ,11.256053394904741    ,1.5773628155685988      ,        0.0 ,        0.0 , 0.0
 0.0 ,0.0 ,           0.0 ,            0.0 ,            0.0 ,            0.0 ,              0.0 ,                   0.0 ,1455.0 ,80.49866 ,-14.62307 ,           0.0 ,           0.0 ,       0.0 ,39.93625       ,-18.6167    ,-0.0213028       ,-0.006805458     ,                 0.0 ,             0.0 ,             0.0 ,                 0.0 ,                 0.0 ,        0.0 ,3.0426599463328836     ,            0.0 ,            0.0 ,            0.0 ,              0.0 ,                   0.0 ,  0.0 ,0.0 ,1448.1582304741664   ,1.0                ,0.0 ,-124.01462788265303 ,-287.4110592735932  ,-1.413388517735549      ,-140.31625855159572 ,          0.0 ,          0.0 ,-123.98995068507723 ,-287.435736471169   ,-140.31625855159572 ,-551.7419686859868  , 90.0241547395408    ,183.9140013391823   ,155.92640288111      ,-119.0534821556443    ,-282.44989056843957 ,-1.413388517735549      ,-135.35511282458697 ,          0.0 ,          0.0 ,-119.02878197992364  ,-282.47459074416025 ,-135.35511282458697 ,-536.8584668365206  , 90.0241547395408    ,178.95285561217355   ,155.92640288111      ,-2.241647025838347e-06  ,3.517100627680179e-07   ,1.5683074675589773e-06  ,      0.0 ,      0.0 ,      0.0 ,6.927977796172363e-07   ,-2.58273479081711e-06   ,      0.0 ,-1.889937179770253e-06  ,1.7522887921211345e-06 ,0.3572460392517721   ,0.05312894646176529     ,-3.3214397268479253e-06 ,-3.1249783985307724e-07 ,6.702788047097393e-06  ,23.73370287806756      ,0.0 ,16.300984255712564    ,2.0674323189391273      ,        0.0 ,        0.0 , 0.0
 0.0 ,0.0 ,           0.0 ,            0.0 ,            0.0 ,            0.0 ,              0.0 ,                   0.0 ,1456.0 ,79.50134 ,-14.62307 ,           0.0 ,           0.0 ,       0.0 ,39.96079       ,-18.61915   ,0.02424908       ,-0.009364421     ,                 0.0 ,             0.0 ,             0.0 ,                 0.0 ,                 0.0 ,        0.0 ,1.8305995859739315     ,            0.0 ,            0.0 ,            0.0 ,              0.0 ,                   0.0 ,  0.0 ,0.0 ,1448.6433836615129   ,1.0                ,0.0 ,-123.85389085141792 ,-286.426460847189   ,2.4821471608253214      ,-139.80012456621145 ,          0.0 ,          0.0 ,-123.7960183460754  ,-286.4843965906218  ,-139.80012456621145 ,-550.0805626519332  , 89.66672486383882   ,183.3601798343029   ,155.30734003219237   ,-118.88985221510544   ,-281.462399061852   ,2.4821471608253214      ,-134.83608592989899 ,          0.0 ,          0.0 ,-118.83195656073846  ,-281.52035795430936 ,-134.83608592989899 ,-535.1883868320617  , 89.66672486383882   ,178.3961411979904    ,155.30734003219237   ,-2.7649226365332483e-06 ,-3.5225569708870636e-08 ,5.860068182164576e-07   ,      0.0 ,      0.0 ,      0.0 ,1.8887323828127307e-08  ,-2.819035616474395e-06  ,      0.0 ,-2.8001481012001056e-06 ,1.6363502407128284e-06 ,0.6783974345259599   ,0.11935550889614954     ,-4.687589730887787e-06  ,-5.812849529505927e-07  ,0.0                    ,4.726595232286912e-06  ,0.0 ,41.806702036460074    ,4.964056021021873       ,        0.0 ,        0.0 , 0.0
 0.0 ,0.0 ,           0.0 ,            0.0 ,            0.0 ,            0.0 ,              0.0 ,                   0.0 ,1457.0 ,78.52102 ,-14.80648 ,           0.0 ,           0.0 ,       0.0 ,38.15038       ,-18.62152   ,-0.002129756     ,0.004234299      ,                 0.0 ,             0.0 ,             0.0 ,                 0.0 ,                 0.0 ,        0.0 ,2.133201974001315      ,            0.0 ,            0.0 ,            0.0 ,              0.0 ,                   0.0 ,  0.0 ,0.0 ,1446.2998064416252   ,1.0                ,0.0 ,-126.93739300710568 ,-289.46063416285875 ,7.772375866163651       ,-141.79087647873902 ,          0.0 ,          0.0 ,-126.51653467452823 ,-289.88156768356106 ,-141.79087647873902 ,-558.1889788368283  , 90.23377812489535   ,186.06299763650838  ,156.28951843195426   ,-121.9780361323476    ,-284.50125247622555 ,7.772375866163651       ,-136.83149479210584 ,          0.0 ,          0.0 ,-121.55717779977013  ,-284.9221471123558  ,-136.83149479210584 ,-543.3108197042319  , 90.23377812489535   ,181.10360187717828   ,156.28951843195426   ,-2.724490515471299e-06  ,-1.181165491375391e-07  ,9.113486563259559e-07   ,      0.0 ,      0.0 ,      0.0 ,-2.5127928695415044e-08 ,-2.817478850381976e-06  ,      0.0 ,-2.8426069228007367e-06 ,1.6235237051774501e-06 ,0.5434914147106615   ,0.08915444383468041     ,-4.249390331164869e-06  ,-5.005195492697307e-07  ,2.2076472586781066e-06 ,8.172202171509992      ,0.0 ,31.527791062766546    ,3.7328424682545602      ,        0.0 ,        0.0 , 0.0
 0.0 ,0.0 ,           0.0 ,            0.0 ,            0.0 ,            0.0 ,              0.0 ,                   0.0 ,1458.0 ,77.59115 ,-15.16704 ,           0.0 ,           0.0 ,       0.0 ,34.5669        ,-18.62373   ,0.04046242       ,0.009912403      ,                 0.0 ,             0.0 ,             0.0 ,                 0.0 ,                 0.0 ,        0.0 ,1.6645384955160742     ,            0.0 ,            0.0 ,            0.0 ,              0.0 ,                   0.0 ,  0.0 ,0.0 ,1445.8758205921092   ,1.0                ,0.0 ,-133.13684483752678 ,-296.54138370874455 ,13.149789663166409      ,-145.9602336092037  ,          0.0 ,          0.0 ,-132.00206142538264 ,-297.67624138468267 ,-145.9602336092037  ,-575.638536419269   , 91.89129371777057   ,191.8794999760983   ,159.16040707553628   ,-128.18747921577233   ,-291.59199235078415 ,13.149789663166409      ,-141.0108422512433  ,          0.0 ,          0.0 ,-127.05269580362823  ,-292.7268182722094  ,-141.0108422512433  ,-560.790356327081   , 91.89129371777057   ,186.93010259983095   ,159.16040707553628   ,-1.6691871813903346e-06 ,-1.0273688933013336e-07 ,5.331406283795463e-07   ,      0.0 ,      0.0 ,      0.0 ,-4.4171231179998164e-08 ,-1.7277525629436121e-06 ,      0.0 ,-1.7719239786323807e-06 ,9.88773634299397e-07   ,0.5300626720681691   ,0.10272154123548169     ,-5.676510913449332e-06  ,-4.0996568515887514e-07 ,2.2898899902167085e-06 ,8.476647094378464      ,0.0 ,26.841844071614837    ,3.677160357899808       ,        0.0 ,        0.0 , 0.0
 0.0 ,0.0 ,           0.0 ,            0.0 ,            0.0 ,            0.0 ,              0.0 ,                   0.0 ,1459.0 ,76.74345 ,-15.69246 ,           0.0 ,           0.0 ,       0.0 ,29.33255       ,-18.62571   ,0.03501305       ,-0.01112704      ,                 0.0 ,             0.0 ,             0.0 ,                 0.0 ,                 0.0 ,        0.0 ,0.33922120825564955    ,            0.0 ,            0.0 ,            0.0 ,              0.0 ,                   0.0 ,  0.0 ,0.0 ,1438.4802605031978   ,1.0                ,0.0 ,-140.91093312852678 ,-304.87587979344977 ,18.24416605239132       ,-150.85400734082978 ,          0.0 ,          0.0 ,-138.9016000406558  ,-306.88531261321765 ,-150.85400734082978 ,-596.6408863406855  , 93.72649538050727   ,198.88027337625158  ,162.3390378145874    ,-135.9832457076203    ,-299.94819237254325 ,18.24416605239132       ,-145.9263199199233  ,          0.0 ,          0.0 ,-133.9739127538009   ,-301.9576253263627  ,-145.9263199199233  ,-581.8578243460693  , 93.72649538050727   ,193.95258608939668   ,162.3390378145874    ,-6.77968089119221e-07   ,-3.4591799792469846e-07 ,5.95344517864646e-07    ,      0.0 ,      0.0 ,      0.0 ,-1.7093755397872736e-07 ,-8.529488697126107e-07  ,      0.0 ,-1.0238864242543546e-06 ,4.513003019081516e-07  ,0.5013084342823406   ,0.09915846562427859     ,-5.150415109592134e-06  ,-2.3763687055290672e-07 ,6.415754312791641e-06  ,8.175097567133923      ,0.0 ,21.85537313648508     ,3.2732563175765463      ,        0.0 ,        0.0 , 0.0
 0.0 ,0.0 ,           0.0 ,            0.0 ,            0.0 ,            0.0 ,              0.0 ,                   0.0 ,1460.0 ,76.00684 ,-16.36481 ,           0.0 ,           0.0 ,       0.0 ,22.62613       ,-18.62742   ,0.03207333       ,-0.003524626     ,                 0.0 ,             0.0 ,             0.0 ,                 0.0 ,                 0.0 ,        0.0 ,1.4725384609005676     ,            0.0 ,            0.0 ,            0.0 ,              0.0 ,                   0.0 ,  0.0 ,0.0 ,1450.5549930673926   ,1.0                ,0.0 ,-149.76647106483176 ,-315.83738986170204 ,21.789672015791297      ,-156.99876899329504 ,          0.0 ,          0.0 ,-146.91713166854396 ,-318.6867541312159  ,-156.99876899329504 ,-622.6026299198287  , 96.39492489270506   ,207.5342078198409   ,166.96088985258694   ,-144.88660290526127   ,-310.95752170213154 ,21.789672015791297      ,-152.11890083372455 ,          0.0 ,          0.0 ,-142.03726350897347  ,-313.80688597164544 ,-152.11890083372455 ,-607.9630597743512  , 96.39492489270506   ,202.6543396602704    ,166.96088985258694   ,-1.0292247075182111e-06 ,-3.7131293500983094e-07 ,1.0938724280328047e-06  ,      0.0 ,      0.0 ,      0.0 ,-6.177762014733411e-08  ,-1.3387605974612894e-06 ,      0.0 ,-1.4005381768150833e-06 ,7.623670501318797e-07  ,0.3481133769886705   ,0.08638345622679651     ,-1.2436261143759326e-05 ,-3.0737270521634465e-07 ,2.303315055393002e-05  ,16.27857972058881      ,0.0 ,6.601532408874461     ,1.6614078469468978      ,        0.0 ,        0.0 , 0.0
 0.0 ,0.0 ,           0.0 ,            0.0 ,            0.0 ,            0.0 ,              0.0 ,                   0.0 ,1461.0 ,75.40643 ,-17.16115 ,           0.0 ,           0.0 ,       0.0 ,14.67634       ,-18.62878   ,0.02706309       ,-0.0008792563    ,                 0.0 ,             0.0 ,             0.0 ,                 0.0 ,                 0.0 ,        0.0 ,1.274823246676142      ,            0.0 ,            0.0 ,            0.0 ,              0.0 ,                   0.0 ,  0.0 ,0.0 ,1467.8073489305962   ,1.0                ,0.0 ,-160.7065779544891  ,-330.2226142420297  ,25.199903290360027      ,-164.76408628443423 ,          0.0 ,          0.0 ,-157.0338241408652  ,-333.89536805565353 ,-164.76408628443423 ,-655.6933272010618  , 99.95627613030902   ,218.5644757336873   ,173.12933743954792   ,-155.97969032153895   ,-325.49574163013295 ,25.199903290360027      ,-160.0372136725375  ,          0.0 ,          0.0 ,-152.3069365079151   ,-329.16848042270345 ,-160.0372136725375  ,-641.5126668619937  , 99.95627613030902   ,213.83753938062821   ,173.12933743954792   ,-1.1327963917341564e-06 ,-1.6176846617844558e-06 ,2.013037055719704e-06   ,      0.0 ,      0.0 ,      0.0 ,-3.2925629105486287e-07 ,-2.4212248899460737e-06 ,      0.0 ,-2.7504810535186124e-06 ,1.315944569548239e-06  ,0.49544401200998334  ,0.15206102576032585     ,-5.000579140817709e-05  ,-9.85956711824011e-09   ,8.205708708432272e-05  ,6.609947182695889      ,0.0 ,8.665502443229924     ,2.4411668876650903      ,        0.0 ,        0.0 , 0.0
 0.0 ,0.0 ,           0.0 ,            0.0 ,            0.0 ,            0.0 ,              0.0 ,                   0.0 ,1462.0 ,74.9627  ,-18.05433 ,           0.0 ,           0.0 ,       0.0 ,5.755046       ,-18.62983   ,0.0487327        ,-0.004895484     ,                 0.0 ,             0.0 ,             0.0 ,                 0.0 ,                 0.0 ,        0.0 ,1.6939856649374154     ,            0.0 ,            0.0 ,            0.0 ,              0.0 ,                   0.0 ,  0.0 ,0.0 ,1444.8042082554705   ,1.0                ,0.0 ,-172.54413110154056 ,-342.8458982433399  ,30.008561632933375      ,-171.86062679824335 ,          0.0 ,          0.0 ,-167.35046203635474 ,-348.0395338370853  ,-171.86062679824335 ,-687.2507226716833  ,103.05187877777377   ,229.08359640008098  ,178.49112678227806   ,-169.06211759306808   ,-339.363851263427   ,30.008561632933375      ,-168.37861328977087 ,          0.0 ,          0.0 ,-163.8684485278823   ,-344.55752032861284 ,-168.37861328977087 ,-676.8045821462661  ,103.05187877777377   ,225.60151636304892   ,178.49112678227806   ,-1.726747937658403e-06  ,-6.794958064395282e-06  ,2.8767365033818898e-06  ,      0.0 ,      0.0 ,      0.0 ,-1.1226000934683303e-06 ,-7.3991051867037e-06    ,      0.0 ,-8.52170508401068e-06   ,4.0097159444614925e-06 ,0.5179094759767051   ,0.5302899851206881      ,-0.0011079113538268156  ,1.2765563399436839e-05  ,6.051044174037034e-05  ,4.875370995232164      ,0.0 ,2.171664817429514     ,1.7964992451059827      ,        0.0 ,        0.0 , 0.0
 0.0 ,0.0 ,           0.0 ,            0.0 ,            0.0 ,            0.0 ,              0.0 ,                   0.0 ,1463.0 ,74.6908  ,-19.01387 ,           0.0 ,           0.0 ,       0.0 ,-3.832856      ,-18.63059   ,0.07139693       ,-0.00485476      ,                 0.0 ,             0.0 ,             0.0 ,                 0.0 ,                 0.0 ,        0.0 ,2.0246461037772487     ,            0.0 ,            0.0 ,            0.0 ,              0.0 ,                   0.0 ,  0.0 ,0.0 ,1449.2204805757372   ,1.0                ,0.0 ,-182.21879453980677 ,-350.9484367746119  ,35.743312696063754      ,-177.04180173940165 ,          0.0 ,          0.0 ,-174.9090764380922  ,-358.2581424552502  ,-177.04180173940165 ,-710.2090355184306  ,105.26359352464345   ,236.73634517281022  ,182.321907346186     ,-185.52713462789694   ,-354.25673442711445 ,35.743312696063754      ,-180.35014182749183 ,          0.0 ,          0.0 ,-178.21741652618238  ,-361.566452528829   ,-180.35014182749183 ,-720.1340084178929  ,105.26359352464345   ,240.04468279629003   ,182.321907346186     ,-1.7271054040180262e-06 ,-9.914918388972678e-06  ,4.115225411286435e-06   ,      0.0 ,      0.0 ,      0.0 ,-1.179846539201203e-06  ,-1.0462175389005754e-05 ,      0.0 ,-1.1642022164642749e-05 ,5.770248311415982e-06  ,0.709000583248292    ,0.6462000346007117      ,-0.0026404334282093397  ,6.862527223085816e-05   ,0.0006362773609828434  ,-1.6179383747606637    ,0.0 ,-1.413652359579909    ,-1.6877484879846378     ,        0.0 ,        0.0 , 0.0
 0.0 ,0.0 ,           0.0 ,            0.0 ,            0.0 ,            0.0 ,              0.0 ,                   0.0 ,1464.0 ,74.6     ,-20.00706 ,           0.0 ,           0.0 ,       0.0 ,-13.76134      ,-18.63092   ,0.1009827        ,-0.005741923     ,                 0.0 ,             0.0 ,             0.0 ,                 0.0 ,                 0.0 ,        0.0 ,2.899054618379436      ,            0.0 ,            0.0 ,            0.0 ,              0.0 ,                   0.0 ,  0.0 ,0.0 ,1460.0985298474855   ,1.0                ,0.0 ,-190.1689791935192  ,-364.81378397686285 ,45.31116879965232       ,-184.4081302530901  ,          0.0 ,          0.0 ,-178.79566230075568 ,-376.18714994107427 ,-184.4081302530901  ,-739.39094249492    ,112.42933020568367   ,246.46364408280937  ,194.73330135692305   ,-203.23551096230074   ,-377.8803463331665  ,45.31116879965232       ,-197.4746620218716  ,          0.0 ,          0.0 ,-191.8622246570593   ,-389.25366322593004 ,-197.4746620218716  ,-778.5905008334132  ,112.42933020568367   ,259.53015736766514   ,194.73330135692305   ,-1.271099356082148e-06  ,-1.297728814066795e-05  ,7.374358134168921e-06   ,      0.0 ,      0.0 ,      0.0 ,-1.4423489326904554e-07 ,-1.4104150367501137e-05 ,      0.0 ,-1.4248386824986783e-05 ,8.105255195253372e-06  ,0.7323392802598723   ,0.6933391051965629      ,-0.0033470358415205216  ,6.941991545930059e-05   ,0.000785675679897389   ,-5.188845684604244     ,0.0 ,-7.874336680008696    ,-7.874336680008696      ,        0.0 ,        0.0 , 0.0
 0.0 ,0.0 ,           0.0 ,            0.0 ,            0.0 ,            0.0 ,              0.0 ,                   0.0 ,1465.0 ,75.71271 ,-20.6824  ,           0.0 ,           0.0 ,       0.0 ,-20.53773      ,-18.62862   ,0.02536784       ,-0.004887518     ,                 0.0 ,             0.0 ,             0.0 ,                 0.0 ,                 0.0 ,        0.0 ,2.4381955530240913     ,            0.0 ,            0.0 ,            0.0 ,              0.0 ,                   0.0 ,  0.0 ,0.0 ,1355.341663559376    ,1.0                ,0.0 ,-197.2744418166578  ,-409.1957448811516  ,29.307978720831652      ,-204.29870924841333 ,          0.0 ,          0.0 ,-193.10837641716145 ,-413.36176260651536 ,-204.29870924841333 ,-810.7688959462228  ,124.05930024956272   ,270.2562837765033   ,214.8770075441948    ,-217.5892646181069    ,-429.51056768260077 ,29.307978720831652      ,-224.6135320498624  ,          0.0 ,          0.0 ,-213.42324689274312  ,-433.6766330820971  ,-224.6135320498624  ,-871.7134120247027  ,124.05930024956272   ,290.5711065779525    ,214.8770075441948    ,-3.869412162939262e-07  ,-1.188332718816345e-05  ,4.8095622257167425e-06  ,      0.0 ,      0.0 ,      0.0 ,9.943601526596752e-08   ,-1.236970333968712e-05  ,      0.0 ,-1.2270268172070343e-05 ,7.171001099415037e-06  ,0.8183470835787444   ,0.5134671569631849      ,-0.0029441811156074335  ,-5.817719217040824e-06  ,0.001819970432129131   ,-12.477594216968717    ,0.0 ,-7.834304693046177    ,-7.834304693046177      ,        0.0 ,        0.0 , 0.0
 0.0 ,0.0 ,           0.0 ,            0.0 ,            0.0 ,            0.0 ,              0.0 ,                   0.0 ,1466.0 ,75.98071 ,-21.55093 ,           0.0 ,           0.0 ,       0.0 ,-29.22728      ,-18.62821   ,-0.01308605      ,0.007941043      ,                 0.0 ,             0.0 ,             0.0 ,                 0.0 ,                 0.0 ,        0.0 ,2.960529919015528      ,            0.0 ,            0.0 ,            0.0 ,              0.0 ,                   0.0 ,  0.0 ,0.0 ,1355.8520611535553   ,1.0                ,0.0 ,-208.34592056637686 ,-425.0565960449478  ,27.27944937724089       ,-212.88381498645273 ,          0.0 ,          0.0 ,-204.65309538623342 ,-428.7494734482525  ,-212.88381498645273 ,-846.2863838209387  ,127.09327250119334   ,282.0954453480333   ,220.13200455273798   ,-236.17094528622502   ,-452.88162356257277 ,27.27944937724089       ,-240.70883970630095 ,          0.0 ,          0.0 ,-232.4781201060816   ,-456.5744487427163  ,-240.70883970630095 ,-929.7614169484293  ,127.09327250119334   ,309.9204700678815    ,220.13200455273798   ,-6.314890247066023e-07  ,-1.7023641023684464e-05 ,4.321620076252256e-06   ,      0.0 ,      0.0 ,      0.0 ,-3.0240328897414196e-07 ,-1.735272561277279e-05  ,      0.0 ,-1.765513018022927e-05  ,9.939280890190455e-06  ,0.9923425294832988   ,0.02491357151655161     ,-9.78454642798292e-05   ,-5.037472786477545e-07  ,0.0030644833447161747  ,-26.836510633478934    ,0.0 ,-0.9884324641771568   ,-0.9884324641771568     ,        0.0 ,        0.0 , 0.0
 0.0 ,0.0 ,           0.0 ,            0.0 ,            0.0 ,            0.0 ,              0.0 ,                   0.0 ,1467.0 ,76.40051 ,-22.36198 ,           0.0 ,           0.0 ,       0.0 ,-37.34499      ,-18.62748   ,-0.01099847      ,0.001340423      ,                 0.0 ,             0.0 ,             0.0 ,                 0.0 ,                 0.0 ,        0.0 ,2.9742817515545172     ,            0.0 ,            0.0 ,            0.0 ,              0.0 ,                   0.0 ,  0.0 ,0.0 ,1355.6505611215994   ,1.0                ,0.0 ,-214.1070354128247  ,-435.9282300862634  ,23.037125344029384      ,-218.427174859697   ,          0.0 ,          0.0 ,-211.6670548671712  ,-438.3682620755934  ,-218.427174859697   ,-868.4624918024616  ,128.98961183777806   ,289.48749726748713  ,223.41651549101846   ,-250.06712852096163   ,-471.88837357044974 ,23.037125344029384      ,-254.3872679678339  ,          0.0 ,          0.0 ,-247.6271479753081   ,-474.3283055597798  ,-254.3872679678339  ,-976.3429697437172  ,128.98961183777806   ,325.44759037562415   ,223.41651549101846   ,6.47023788966633e-08    ,-1.7005381788029953e-05 ,3.590385839729959e-06   ,      0.0 ,      0.0 ,      0.0 ,2.6399072531024e-07     ,-1.7204671591133237e-05 ,      0.0 ,-1.6940678916049068e-05 ,1.0030726199598603e-05 ,0.9950194391871772   ,0.015096864007250198    ,-0.00010380084962479508 ,-3.2764657077386544e-07 ,0.0031010415463593923  ,-35.317147936922595    ,0.0 ,-0.642894802724411    ,-0.642894802724411      ,        0.0 ,        0.0 , 0.0
 0.0 ,0.0 ,           0.0 ,            0.0 ,            0.0 ,            0.0 ,              0.0 ,                   0.0 ,1468.0 ,76.93294 ,-23.09965 ,           0.0 ,           0.0 ,       0.0 ,-44.73123      ,-18.62652   ,-0.0121091       ,0.001146127      ,                 0.0 ,             0.0 ,             0.0 ,                 0.0 ,                 0.0 ,        0.0 ,0.9827511658155273     ,            0.0 ,            0.0 ,            0.0 ,              0.0 ,                   0.0 ,  0.0 ,0.0 ,1354.4028030128777   ,1.0                ,0.0 ,-218.94979907399866 ,-442.7316303368454  ,20.526119600360673      ,-222.49615955665575 ,          0.0 ,          0.0 ,-216.91261625873858 ,-444.7688119784243  ,-222.49615955665575 ,-884.1776374825793  ,129.98107306705975   ,294.7258795520868   ,225.1337436853242    ,-263.23108431936      ,-487.01291503100447 ,20.526119600360673      ,-266.7774448020171  ,          0.0 ,          0.0 ,-261.19385181533937  ,-489.0500972237857  ,-266.7774448020171  ,-1017.0213946061741 ,129.98107306705975   ,339.0071151086876    ,225.1337436853242    ,5.966223362596117e-07   ,-7.596135826124486e-06  ,2.1747457788518335e-06  ,      0.0 ,      0.0 ,      0.0 ,7.384859066741635e-07   ,-7.738000870665786e-06  ,      0.0 ,-6.9995125071137085e-06 ,4.6952592882551215e-06 ,0.9956699687103154   ,0.008830413268689592    ,-0.00020160394477348423 ,-3.049722399013651e-06  ,0.002915860877134008   ,-43.6858784372146      ,0.0 ,-0.595352337007592    ,-0.595352337007592      ,        0.0 ,        0.0 , 0.0
 0.0 ,0.0 ,           0.0 ,            0.0 ,            0.0 ,            0.0 ,              0.0 ,                   0.0 ,1469.0 ,77.53846 ,-23.74523 ,           0.0 ,           0.0 ,       0.0 ,-51.1982       ,-18.62541   ,-0.02005905      ,0.003036041      ,                 0.0 ,             0.0 ,             0.0 ,                 0.0 ,                 0.0 ,        0.0 ,0.9407005354646407     ,            0.0 ,            0.0 ,            0.0 ,              0.0 ,                   0.0 ,  0.0 ,0.0 ,1354.211204413632    ,1.0                ,0.0 ,-222.38586443027762 ,-445.5173794798392  ,14.75830180042732       ,-224.48705586773366 ,          0.0 ,          0.0 ,-221.40702645385238 ,-446.496210787921   ,-224.48705586773366 ,-892.39029237111    ,129.076792199456     ,297.46341733480887  ,223.56753073798114   ,-273.1644940160463    ,-496.29596276897803 ,14.75830180042732       ,-275.2657324885291  ,          0.0 ,          0.0 ,-272.18560974299123  ,-497.2748403736897  ,-275.2657324885291  ,-1044.7261122321713 ,129.076792199456     ,348.24204765897457   ,223.56753073798114   ,9.64059540811031e-07    ,-7.648116417953362e-06  ,1.4268889077623116e-06  ,      0.0 ,      0.0 ,      0.0 ,1.0227620763256309e-06  ,-7.706816131366356e-06  ,      0.0 ,-6.684053584690458e-06  ,4.772258479460314e-06  ,0.9753986541233785   ,0.0639276183043551      ,-0.00032776069788287244 ,-1.7327190162471055e-05 ,0.0027652269744117266  ,-47.39595376415024     ,0.0 ,-3.3825318528461668   ,-3.3825318528461668     ,        0.0 ,        0.0 , 0.0
 0.0 ,0.0 ,           0.0 ,            0.0 ,            0.0 ,            0.0 ,              0.0 ,                   0.0 ,1470.0 ,78.16318 ,-24.27666 ,           0.0 ,           0.0 ,       0.0 ,-56.52406      ,-18.62426   ,-0.01451571      ,0.007143612      ,                 0.0 ,             0.0 ,             0.0 ,                 0.0 ,                 0.0 ,        0.0 ,1.8864779657131225     ,            0.0 ,            0.0 ,            0.0 ,              0.0 ,                   0.0 ,  0.0 ,0.0 ,1362.5158456498416   ,1.0                ,0.0 ,-225.715254467154   ,-449.39756406780566 ,11.9459619644403        ,-226.5875799990939  ,          0.0 ,          0.0 ,-225.04644592633744 ,-450.06637260862226 ,-226.5875799990939  ,-901.7003545592036  ,129.47517797377554   ,300.5667553038023   ,224.25764357808123   ,-281.224618160989     ,-504.90691640943726 ,11.9459619644403        ,-282.0969876677789  ,          0.0 ,          0.0 ,-280.55580962017245  ,-505.57572495025374 ,-282.0969876677789  ,-1068.2287541249843 ,129.47517797377554   ,356.0761629724873    ,224.25764357808123   ,1.8847162531604049e-06  ,-1.684453245632202e-05  ,2.6061433693488213e-06  ,      0.0 ,      0.0 ,      0.0 ,1.9774208808673446e-06  ,-1.693723243157603e-05  ,      0.0 ,-1.495981333724884e-05  ,1.0397878958984825e-05 ,0.7744528134947155   ,0.5585980041373411      ,-0.001998998908974527   ,-7.776886420101799e-05  ,0.0016543923441737992  ,-24.52412941223984     ,0.0 ,-30.983310028063297   ,-30.983310028063297     ,        0.0 ,        0.0 , 0.0
 0.0 ,0.0 ,           0.0 ,            0.0 ,            0.0 ,            0.0 ,              0.0 ,                   0.0 ,1471.0 ,78.69338 ,-24.6662  ,           0.0 ,           0.0 ,       0.0 ,-60.42925      ,-18.62327   ,-0.005049481     ,0.0003575263     ,                 0.0 ,             0.0 ,             0.0 ,                 0.0 ,                 0.0 ,        0.0 ,2.0481758342019765     ,            0.0 ,            0.0 ,            0.0 ,              0.0 ,                   0.0 ,  0.0 ,0.0 ,1405.0052721203042   ,1.0                ,0.0 ,-226.5791445203153  ,-450.19296022360453 ,8.932133117357749       ,-227.0917013991778  ,          0.0 ,          0.0 ,-226.21198658289254 ,-450.5601056166324  ,-227.0917013991778  ,-903.8637935987028  ,129.27586587499408   ,301.28790365356036  ,223.9124605841918    ,-286.27176597924523   ,-509.88558168253445 ,8.932133117357749       ,-286.78432285810777 ,          0.0 ,          0.0 ,-285.90462058621733  ,-510.25272707556235 ,-286.78432285810777 ,-1082.9418161704386 ,129.27586587499408   ,360.9805251124903    ,223.9124605841918    ,1.9255790633283204e-06  ,-1.5607605240615236e-05 ,2.296393406419724e-06   ,      0.0 ,      0.0 ,      0.0 ,2.0029683286075564e-06  ,-1.5684992126657075e-05 ,      0.0 ,-1.3682028003667135e-05 ,9.694843402504885e-06  ,0.669849354947966    ,0.8253618726133529      ,-0.0029832555239771553  ,-0.00011872020713184393 ,0.0010197613479291986  ,-12.035061659314486    ,0.0 ,-47.654625650748464   ,-47.654625650748464     ,        0.0 ,        0.0 , 0.0
 0.0 ,0.0 ,           0.0 ,            0.0 ,            0.0 ,            0.0 ,              0.0 ,                   0.0 ,1472.0 ,79.35933 ,-24.61193 ,           0.0 ,           0.0 ,       0.0 ,-59.90082      ,-18.62185   ,-0.0005961779    ,-0.0004622282    ,                 0.0 ,             0.0 ,             0.0 ,                 0.0 ,                 0.0 ,        0.0 ,1.1167548637807816     ,            0.0 ,            0.0 ,            0.0 ,              0.0 ,                   0.0 ,  0.0 ,0.0 ,1364.0749836515542   ,1.0                ,0.0 ,-227.19392058567718 ,-449.42069363079764 ,6.073574287499896       ,-227.04570932575393 ,          0.0 ,          0.0 ,-226.99437716106684 ,-449.62022536267864 ,-227.04570932575393 ,-903.6603560117562  ,128.51829314507606   ,301.22010395558084  ,222.6002041917752    ,-286.6100089298387    ,-508.8368378299454  ,6.073574287499896       ,-286.46184183217224 ,          0.0 ,          0.0 ,-286.41047719795773  ,-509.0363695618264  ,-286.46184183217224 ,-1081.9086119084432 ,128.51829314507606   ,360.6362039924717    ,222.6002041917752    ,7.349942616356507e-07   ,-8.95965404912001e-06   ,1.171860247670894e-06   ,      0.0 ,      0.0 ,      0.0 ,7.702920293036876e-07   ,-8.994950811014905e-06  ,      0.0 ,-8.22466171103755e-06   ,5.435971870963472e-06  ,0.8221354131147047   ,0.4400786638693925      ,-0.001866759888257666   ,-6.795612795167391e-05  ,0.0013888260781848975  ,-34.3967480369274      ,0.0 ,-25.01768565105317    ,-25.01768565105317      ,        0.0 ,        0.0 , 0.0
 0.0 ,0.0 ,           0.0 ,            0.0 ,            0.0 ,            0.0 ,              0.0 ,                   0.0 ,1473.0 ,80.18077 ,-24.47853 ,           0.0 ,           0.0 ,       0.0 ,-58.58475      ,-18.62006   ,0.01319181       ,0.001457081      ,                 0.0 ,             0.0 ,             0.0 ,                 0.0 ,                 0.0 ,        0.0 ,0.5985829583943588     ,            0.0 ,            0.0 ,            0.0 ,              0.0 ,                   0.0 ,  0.0 ,0.0 ,1358.1126179062753   ,1.0                ,0.0 ,-226.61527206073995 ,-449.73686293683886 ,2.129620887431429       ,-226.7447838469917  ,          0.0 ,          0.0 ,-226.5874845052858  ,-449.76465049229296 ,-226.7447838469917  ,-903.0969659975582  ,128.80613172730332   ,301.0323067206098   ,223.0987091264514    ,-284.1998530040731    ,-507.3214910331597  ,2.129620887431429       ,-284.329404932029   ,          0.0 ,          0.0 ,-284.172065448619    ,-507.34927858861386 ,-284.329404932029   ,-1075.850403742271  ,128.80613172730332   ,358.616887663943     ,223.0987091264514    ,7.503525462152434e-07   ,-1.0432218078768197e-05 ,4.4388306721805427e-07  ,      0.0 ,      0.0 ,      0.0 ,7.548438063809166e-07   ,-1.0436708281993624e-05 ,      0.0 ,-9.681864896289718e-06  ,6.25601983739515e-06   ,0.9722614903321398   ,0.0680802644204012      ,-0.0005096628007225755  ,-1.534958568823757e-05  ,0.002051960613700273   ,-53.29527780300192     ,0.0 ,-4.289038417176059    ,-4.289038417176059      ,        0.0 ,        0.0 , 0.0
 0.0 ,0.0 ,           0.0 ,            0.0 ,            0.0 ,            0.0 ,              0.0 ,                   0.0 ,1474.0 ,81.04913 ,-24.22934 ,           0.0 ,           0.0 ,       0.0 ,-56.11254      ,-18.61809   ,0.008966894      ,-0.0001111957    ,                 0.0 ,             0.0 ,             0.0 ,                 0.0 ,                 0.0 ,        0.0 ,0.9705050639214414     ,            0.0 ,            0.0 ,            0.0 ,              0.0 ,                   0.0 ,  0.0 ,0.0 ,1359.447707107557    ,1.0                ,0.0 ,-224.84341169829875 ,-450.2836931747296  ,-2.5257003312426605     ,-226.83276221161913 ,          0.0 ,          0.0 ,-224.80329331469724 ,-450.3238115583311  ,-226.83276221161913 ,-901.9599139462935  ,129.6229702870628    ,300.6533187316129   ,224.51364872746527   ,-280.55042806756046   ,-505.9907049308905  ,-2.5257003312426605     ,-282.53972544252684 ,          0.0 ,          0.0 ,-280.5103050708582   ,-506.0308279275928  ,-282.53972544252684 ,-1069.0810479288898 ,129.6229702870628    ,356.36033510087464   ,224.51364872746527   ,1.054407167707578e-06   ,-7.453808862638403e-06  ,2.016490188684309e-07   ,      0.0 ,      0.0 ,      0.0 ,1.0556018594412652e-06  ,-7.4550025838670275e-06 ,      0.0 ,-6.3994036359409535e-06 ,4.638997221705871e-06  ,0.6059215981686737   ,1.0                     ,-0.002978647437035689   ,-0.00033551480276747486 ,0.0                    ,0.0030047456351187936  ,0.0 ,-55.70699765989505    ,-55.70699765989505      ,        0.0 ,        0.0 , 0.0
 0.0 ,0.0 ,           0.0 ,            0.0 ,            0.0 ,            0.0 ,              0.0 ,                   0.0 ,1475.0 ,81.90441 ,-23.85731 ,           0.0 ,           0.0 ,       0.0 ,-52.41259      ,-18.61605   ,0.001396479      ,-0.003957535     ,                 0.0 ,             0.0 ,             0.0 ,                 0.0 ,                 0.0 ,        0.0 ,0.4977148794701939     ,            0.0 ,            0.0 ,            0.0 ,              0.0 ,                   0.0 ,  0.0 ,0.0 ,1359.8896197798845   ,1.0                ,0.0 ,-223.2629448628364  ,-451.1491383207591  ,-9.483548738861973      ,-226.9216723245085  ,          0.0 ,          0.0 ,-222.64400509815638 ,-451.76805319969515 ,-226.9216723245085  ,-901.3338007784125  ,131.07271460248813   ,300.44460540159116  ,227.0246497543668    ,-275.4774616618891    ,-503.36362527586436 ,-9.483548738861973      ,-279.13618416535763 ,          0.0 ,          0.0 ,-274.8585169390056   ,-503.98259488449185 ,-279.13618416535763 ,-1057.9773408021395 ,131.07271460248813   ,352.6591222006439    ,227.0246497543668    ,3.4196993938638083e-07  ,-3.350955014711385e-06  ,-2.564505779362942e-07  ,      0.0 ,      0.0 ,      0.0 ,3.4641677297700723e-07  ,-3.3554020971594514e-06 ,      0.0 ,-3.008985075325004e-06  ,2.044594309413016e-06  ,0.7060940656572583   ,0.7501663634531925      ,-0.0017089966538909609  ,-0.00034628082817782983 ,0.0009786443246302555  ,-12.064458045394385    ,0.0 ,-40.14836323076008    ,-40.14836323076008      ,        0.0 ,        0.0 , 0.0
 0.0 ,0.0 ,           0.0 ,            0.0 ,            0.0 ,            0.0 ,              0.0 ,                   0.0 ,1476.0 ,82.71031 ,-23.38172 ,           0.0 ,           0.0 ,       0.0 ,-47.67707      ,-18.61401   ,0.01252331       ,0.0004518575     ,                 0.0 ,             0.0 ,             0.0 ,                 0.0 ,                 0.0 ,        0.0 ,1.2928678776151628     ,            0.0 ,            0.0 ,            0.0 ,              0.0 ,                   0.0 ,  0.0 ,0.0 ,1360.8250804541985   ,1.0                ,0.0 ,-220.4768149710537  ,-449.8675080394846  ,-15.665914096927187     ,-225.60063737544698 ,          0.0 ,          0.0 ,-219.17422387509743 ,-451.1700442447317  ,-225.60063737544698 ,-895.9449859899067  ,132.13193918685724   ,298.6483436997325   ,228.85930744585875   ,-267.3156845411378    ,-496.70637760956873 ,-15.665914096927187     ,-272.4395618362402  ,          0.0 ,          0.0 ,-266.0131678412601   ,-498.008968705525   ,-272.4395618362402  ,-1036.461863055153  ,132.13193918685724   ,345.4872132698166    ,228.85930744585875   ,7.785025533908867e-07   ,-1.1077900509492303e-05 ,-8.974750329347425e-07  ,      0.0 ,      0.0 ,      0.0 ,7.957138470692933e-07   ,-1.1095111766916719e-05 ,      0.0 ,-1.0299398424230281e-05 ,6.6517387829271915e-06 ,0.8256913544419267   ,0.44893970222247587     ,-0.0011733482353566383  ,-0.0001404081938262313  ,0.0021586045834464484  ,-26.613347797632024    ,0.0 ,-20.224511283046258   ,-20.224511283046258     ,        0.0 ,        0.0 , 0.0
 0.0 ,0.0 ,           0.0 ,            0.0 ,            0.0 ,            0.0 ,              0.0 ,                   0.0 ,1477.0 ,83.43382 ,-22.82901 ,           0.0 ,           0.0 ,       0.0 ,-42.16953      ,-18.61206   ,0.008578189      ,0.0008377973     ,                 0.0 ,             0.0 ,             0.0 ,                 0.0 ,                 0.0 ,        0.0 ,2.013074399100853      ,            0.0 ,            0.0 ,            0.0 ,              0.0 ,                   0.0 ,  0.0 ,0.0 ,1362.1396348428302   ,1.0                ,0.0 ,-217.8507903186349  ,-445.8240776283811  ,-22.461694949239725     ,-223.5027886999564  ,          0.0 ,          0.0 ,-215.47109407386134 ,-448.20376733236844 ,-223.5027886999564  ,-887.1776566469723  ,132.11614858449988   ,295.7259009076198   ,228.8319099279155    ,-259.4718355869196    ,-487.44512289666574 ,-22.461694949239725     ,-265.1238405090272  ,          0.0 ,          0.0 ,-257.09219195881917  ,-489.8248191414393  ,-265.1238405090272  ,-1012.0408712316441 ,132.11614858449988   ,337.34694617590446   ,228.8319099279155    ,9.341369346453782e-07   ,-1.2064372968014681e-05 ,-3.762295761562198e-07  ,      0.0 ,      0.0 ,      0.0 ,9.699949320994311e-07   ,-1.2100229174766718e-05 ,      0.0 ,-1.1130236665357322e-05 ,7.31585805531344e-06   ,0.8259451576889775   ,0.45754647173833657     ,-0.0013353665338113878  ,-6.50193428523495e-05   ,0.003222494816363072   ,-23.91116301595913     ,0.0 ,-17.7088202254601     ,-17.7088202254601       ,        0.0 ,        0.0 , 0.0
 0.0 ,0.0 ,           0.0 ,            0.0 ,            0.0 ,            0.0 ,              0.0 ,                   0.0 ,1478.0 ,84.04284 ,-22.25302 ,           0.0 ,           0.0 ,       0.0 ,-36.4271       ,-18.61031   ,0.01391909       ,0.001864381      ,                 0.0 ,             0.0 ,             0.0 ,                 0.0 ,                 0.0 ,        0.0 ,2.22987730693481       ,            0.0 ,            0.0 ,            0.0 ,              0.0 ,                   0.0 ,  0.0 ,0.0 ,1370.4244731884878   ,1.0                ,0.0 ,-214.63995030088134 ,-438.4259716454837  ,-26.57629966632828      ,-219.86487214892483 ,          0.0 ,          0.0 ,-211.50059361272952 ,-441.5653726270683  ,-219.86487214892483 ,-872.9308056698861  ,130.48342973795104   ,290.97694612957423  ,226.00397477137398   ,-250.36726625447326   ,-474.15328759907567 ,-26.57629966632828      ,-255.5921881025168  ,          0.0 ,          0.0 ,-247.22786527288866  ,-477.2926885806603  ,-255.5921881025168  ,-980.112697662633   ,130.48342973795104   ,326.7042177897333    ,226.00397477137398   ,3.863905662719351e-07   ,-1.246083593704776e-05  ,-1.3543424135835738e-06 ,      0.0 ,      0.0 ,      0.0 ,4.845079276329324e-07   ,-1.2558955980778538e-05 ,      0.0 ,-1.2074445618556637e-05 ,7.436778484848043e-06  ,0.9564788001993835   ,0.11192748071059541     ,-0.0005982270312205587  ,-1.966559796578922e-05  ,0.003829264107914852   ,-31.85699694687454     ,0.0 ,-3.8699986895683067   ,-3.8699986895683067     ,        0.0 ,        0.0 , 0.0
 0.0 ,0.0 ,           0.0 ,            0.0 ,            0.0 ,            0.0 ,              0.0 ,                   0.0 ,1479.0 ,84.49703 ,-21.75917 ,           0.0 ,           0.0 ,       0.0 ,-31.50239      ,-18.60893   ,0.01923725       ,0.004504204      ,                 0.0 ,             0.0 ,             0.0 ,                 0.0 ,                 0.0 ,        0.0 ,1.7904725542056634     ,            0.0 ,            0.0 ,            0.0 ,              0.0 ,                   0.0 ,  0.0 ,0.0 ,1394.0044712130502   ,1.0                ,0.0 ,-211.37333414609859 ,-440.03821722296055 ,-30.889432950096857     ,-219.86246387032017 ,          0.0 ,          0.0 ,-207.15541157990333 ,-444.25620026552804 ,-219.86246387032017 ,-871.2740152393792  ,133.42204330409461   ,290.42469248817804  ,231.0937993916806    ,-242.0202057012258    ,-470.68506989066515 ,-30.889432950096857     ,-250.5093354254474  ,          0.0 ,          0.0 ,-237.80218313503053  ,-474.9030718206553  ,-250.5093354254474  ,-963.2144491087231  ,133.42204330409461   ,321.0714829307278    ,231.0937993916806    ,2.4295999070048975e-07  ,-1.3062123749995819e-05 ,-1.73556036786757e-06   ,      0.0 ,      0.0 ,      0.0 ,3.2701619840069677e-07  ,-1.3146184191042087e-05 ,      0.0 ,-1.2819164968822777e-05 ,7.71793614260961e-06   ,0.9369986787527835   ,0.18611340598462528     ,-0.0014122086328529518  ,-8.678258837191787e-05  ,0.0027683298237900027  ,-25.08813009968169     ,0.0 ,-5.557503221598326    ,-5.557503221598326      ,        0.0 ,        0.0 , 0.0
 0.0 ,0.0 ,           0.0 ,            0.0 ,            0.0 ,            0.0 ,              0.0 ,                   0.0 ,1480.0 ,84.49341 ,-21.09217 ,           0.0 ,           0.0 ,       0.0 ,-24.83592      ,-18.60858   ,-0.01052836      ,-0.004559442     ,                 0.0 ,             0.0 ,             0.0 ,                 0.0 ,                 0.0 ,        0.0 ,3.3289901172329355     ,            0.0 ,            0.0 ,            0.0 ,              0.0 ,                   0.0 ,  0.0 ,0.0 ,1364.7000963691294   ,1.0                ,0.0 ,-202.347695053427   ,-420.33662860301723 ,-30.933084256535725     ,-209.99031934476213 ,          0.0 ,          0.0 ,-197.70658272713297 ,-424.977773828323   ,-209.99031934476213 ,-832.6746313749779  ,127.82010054307769   ,277.55820680848615  ,221.3909293630347    ,-226.72446838968722   ,-444.71331356550604 ,-30.933084256535725     ,-234.3670481557821  ,          0.0 ,          0.0 ,-222.08326768962166  ,-449.3545026393431  ,-234.3670481557821  ,-905.8047862624439  ,127.82010054307769   ,301.93494724573463   ,221.3909293630347    ,-4.7389100619152893e-07 ,-1.1335085945389718e-05 ,-1.831720564743138e-06  ,      0.0 ,      0.0 ,      0.0 ,-3.4704964908596423e-07 ,-1.1461929636849069e-05 ,      0.0 ,-1.1808979809115318e-05 ,6.555452725373151e-06  ,0.8149802051145556   ,0.5535227928399999      ,-0.003347755988824623   ,-0.00022930055405320763 ,0.0012262055251010219  ,-9.256585864020034     ,0.0 ,-15.116843909402313   ,-15.116843909402313     ,        0.0 ,        0.0 , 0.0
 0.0 ,0.0 ,           0.0 ,            0.0 ,            0.0 ,            0.0 ,              0.0 ,                   0.0 ,1481.0 ,84.42567 ,-20.26161 ,           0.0 ,           0.0 ,       0.0 ,-16.53261      ,-18.60834   ,-0.05431151      ,-0.0003833431    ,                 0.0 ,             0.0 ,             0.0 ,                 0.0 ,                 0.0 ,        0.0 ,2.0658876991041333     ,            0.0 ,            0.0 ,            0.0 ,              0.0 ,                   0.0 ,  0.0 ,0.0 ,1366.1524423293276   ,1.0                ,0.0 ,-188.57096591486857 ,-394.7280216956956  ,-30.639295816645955     ,-196.55940969148708 ,          0.0 ,          0.0 ,-183.74304153484724 ,-399.5559379988863  ,-196.55940969148708 ,-779.8583958139905  ,121.06971608907995   ,259.9527805918584   ,209.69890319199504   ,-204.43130309285473   ,-410.588319500867   ,-30.639295816645955     ,-212.41970749665845 ,          0.0 ,          0.0 ,-199.60333934001864  ,-415.4162358040577  ,-212.41970749665845 ,-827.4393300903802  ,121.06971608907995   ,275.81312584667523   ,209.69890319199504   ,-1.1395304625509875e-06 ,-1.1495203692591591e-05 ,-1.925353896857028e-06  ,      0.0 ,      0.0 ,      0.0 ,-1.017849202432855e-06  ,-1.1616880799208617e-05 ,      0.0 ,-1.2634734008282751e-05 ,6.437567093418811e-06  ,0.8418201063516526   ,0.4721825943173368      ,-0.0020313396055156325  ,-0.00011357504425876038 ,0.002315440707037194   ,-6.8196255245723245    ,0.0 ,-9.038739897879116    ,-9.038739897879116      ,        0.0 ,        0.0 , 0.0
 0.0 ,0.0 ,           0.0 ,            0.0 ,            0.0 ,            0.0 ,              0.0 ,                   0.0 ,1482.0 ,84.25443 ,-19.36903 ,           0.0 ,           0.0 ,       0.0 ,-7.606236      ,-18.60841   ,-0.06331967      ,0.003687386      ,                 0.0 ,             0.0 ,             0.0 ,                 0.0 ,                 0.0 ,        0.0 ,3.513292168291456      ,            0.0 ,            0.0 ,            0.0 ,              0.0 ,                   0.0 ,  0.0 ,0.0 ,1367.5179894896714   ,1.0                ,0.0 ,-179.52065367314333 ,-374.8325813780716  ,-28.3630908946344       ,-186.67103195944583 ,          0.0 ,          0.0 ,-175.20959920437377 ,-379.14358291948037 ,-186.67103195944583 ,-741.0242627540832  ,114.57655936506869   ,247.00806994224075  ,198.45240770225533   ,-186.67965842335383   ,-381.99168187170454 ,-28.3630908946344       ,-193.83008963701718 ,          0.0 ,          0.0 ,-182.36870395458433  ,-386.30264059705166 ,-193.83008963701718 ,-762.5014299320757  ,114.57655936506869   ,254.16712761981213   ,198.45240770225533   ,-1.4025852324002137e-06 ,-1.0569542377613896e-05 ,-1.1455346651339309e-06 ,      0.0 ,      0.0 ,      0.0 ,-1.293469237637039e-06  ,-1.0678655189177487e-05 ,      0.0 ,-1.1972125098329057e-05 ,5.8297518363641605e-06 ,0.8377296644694007   ,0.4673923909958728      ,-0.00143086221288956    ,-2.725424843613273e-05  ,0.0033374162404318257  ,-5.590212483192132     ,0.0 ,-1.567389434953889    ,-1.567389434953889      ,        0.0 ,        0.0 , 0.0
 0.0 ,0.0 ,           0.0 ,            0.0 ,            0.0 ,            0.0 ,              0.0 ,                   0.0 ,1483.0 ,83.96553 ,-18.47648 ,           0.0 ,           0.0 ,       0.0 ,1.323546       ,-18.60884   ,-0.0575546       ,0.0002932931     ,                 0.0 ,             0.0 ,             0.0 ,                 0.0 ,                 0.0 ,        0.0 ,4.0                    ,            0.0 ,            0.0 ,            0.0 ,              0.0 ,                   0.0 ,  0.0 ,0.0 ,1367.924824389789    ,1.0                ,0.0 ,-172.65660138000212 ,-362.50799688617474 ,-23.576118286467835     ,-180.18412423388216 ,          0.0 ,          0.0 ,-169.64896578116122 ,-365.5156027776185  ,-180.18412423388216 ,-715.348692792662   ,110.17023378870348   ,238.44954605481684  ,190.82043311342932   ,-172.79353980382882   ,-362.64498068179    ,-23.576118286467835     ,-180.32109236510598 ,          0.0 ,          0.0 ,-169.78597928417358  ,-365.6525958296566  ,-180.32109236510598 ,-715.7596128507248  ,110.17023378870348   ,238.58651418604066   ,190.82043311342932   ,-2.6030766144258524e-06 ,-1.1753812428714388e-05 ,-2.6564708561409192e-06 ,      0.0 ,      0.0 ,      0.0 ,-1.957797168311136e-06  ,-1.2399087791756006e-05 ,      0.0 ,-1.4356884992106983e-05 ,6.672336104733881e-06  ,0.7524988794850465   ,0.5199299998144264      ,-0.0012405824452462646  ,-2.6289442757370533e-05 ,0.0008094163579475262  ,0.17610013140653932    ,0.0 ,2.951739669715263     ,-0.3106222010218995     ,        0.0 ,        0.0 , 0.0
 0.0 ,0.0 ,           0.0 ,            0.0 ,            0.0 ,            0.0 ,              0.0 ,                   0.0 ,1484.0 ,83.57122 ,-17.62374 ,           0.0 ,           0.0 ,       0.0 ,9.858605       ,-18.6096    ,-0.05829954      ,-0.001647971     ,                 0.0 ,             0.0 ,             0.0 ,                 0.0 ,                 0.0 ,        0.0 ,3.606220688334431      ,            0.0 ,            0.0 ,            0.0 ,              0.0 ,                   0.0 ,  0.0 ,0.0 ,1368.8629544837909   ,1.0                ,0.0 ,-163.07986147723062 ,-346.87496785930745 ,-19.02021717763178      ,-172.21647193772827 ,          0.0 ,          0.0 ,-161.0995166864862  ,-348.8553126500518  ,-172.21647193772827 ,-682.1712815853007  ,105.33930678123929   ,227.39040237083586  ,182.45298279288312   ,-160.3750793441258    ,-344.1702112534095  ,-19.02021717763178      ,-169.51168980462347 ,          0.0 ,          0.0 ,-158.3947600805882   ,-346.1505853007746  ,-169.51168980462347 ,-674.0569804021587  ,105.33930678123929   ,224.68563992669664   ,182.45298279288312   ,-2.6555523804384277e-06 ,-5.063820749509503e-06  ,-1.4426134349071289e-06 ,      0.0 ,      0.0 ,      0.0 ,-1.1343665202385973e-06 ,-6.585005430751923e-06  ,      0.0 ,-7.719371952032417e-06  ,3.5283571171696697e-06 ,0.6479881658248116   ,0.4744955334992218      ,-0.0007640472362696689  ,-1.5013759163229061e-05 ,0.0                    ,0.0007642044590361077  ,0.0 ,11.470045519903977    ,2.7047681927955183      ,        0.0 ,        0.0 , 0.0
 0.0 ,0.0 ,           0.0 ,            0.0 ,            0.0 ,            0.0 ,              0.0 ,                   0.0 ,1485.0 ,83.09582 ,-16.84567 ,           0.0 ,           0.0 ,       0.0 ,17.65017       ,-18.61068   ,-0.0491509       ,0.001296264      ,                 0.0 ,             0.0 ,             0.0 ,                 0.0 ,                 0.0 ,        0.0 ,2.6059258842505986     ,            0.0 ,            0.0 ,            0.0 ,              0.0 ,                   0.0 ,  0.0 ,0.0 ,1370.0939828455307   ,1.0                ,0.0 ,-153.22300219142215 ,-332.27855866448624 ,-15.15312409308969      ,-164.5552657656512  ,          0.0 ,          0.0 ,-151.93508295392223 ,-333.5664779019861  ,-164.5552657656512  ,-650.0567806843449  ,101.41916547109157   ,216.6855919167696   ,175.66309914092164   ,-148.45031220189193   ,-327.505868674956   ,-15.15312409308969      ,-159.78252824313893 ,          0.0 ,          0.0 ,-147.16234543141     ,-328.7937944422591  ,-159.78252824313893 ,-635.7387091199869  ,101.41916547109157   ,211.91290033147212   ,175.66309914092164   ,-1.8740526479751395e-06 ,-1.0174697744559223e-07 ,1.8618974236332029e-06  ,      0.0 ,      0.0 ,      0.0 ,4.3965418780595623e-07  ,-2.415454219756491e-06  ,      0.0 ,-1.9757997125078594e-06 ,1.610457077932154e-06  ,0.4463281847313685   ,0.18525770923585752     ,-9.505419814780699e-05  ,-4.4869580731450246e-07 ,3.111453864364619e-05  ,10.685303991782071     ,0.0 ,7.02559647180847      ,2.452744655945284       ,        0.0 ,        0.0 , 0.0
 0.0 ,0.0 ,           0.0 ,            0.0 ,            0.0 ,            0.0 ,              0.0 ,                   0.0 ,1486.0 ,82.58733 ,-16.18112 ,           0.0 ,           0.0 ,       0.0 ,24.30714       ,-18.61183   ,-0.02612695      ,0.001130185      ,                 0.0 ,             0.0 ,             0.0 ,                 0.0 ,                 0.0 ,        0.0 ,0.7877789150699976     ,            0.0 ,            0.0 ,            0.0 ,              0.0 ,                   0.0 ,  0.0 ,0.0 ,1370.5530747909029   ,1.0                ,0.0 ,-144.73088756484935 ,-320.64051661128883 ,-12.203991892936351     ,-158.06154353761693 ,          0.0 ,          0.0 ,-143.87908254296536 ,-321.4923216331729  ,-158.06154353761693 ,-623.4329032615575  , 98.70624518264819   ,207.81097145238738  ,170.96423591869797   ,-139.8410602991638    ,-315.75073327836105 ,-12.203991892936351     ,-153.17170413744677 ,          0.0 ,          0.0 ,-138.9892436622352   ,-316.602538300245   ,-153.17170413744677 ,-608.7634977149715  , 98.70624518264819   ,202.92113257165718   ,170.96423591869797   ,-1.160743734676619e-06  ,-9.434614719619437e-08  ,2.4509414412013567e-07  ,      0.0 ,      0.0 ,      0.0 ,3.13261606715206e-08    ,-1.2864162208027855e-06 ,      0.0 ,-1.2550898909604371e-06 ,7.746904732578829e-07  ,0.6134144669488969   ,0.17899867708317038     ,-2.1282512831188987e-05 ,-1.8847418320076174e-06 ,7.603073458843116e-06  ,2.611033198946776      ,0.0 ,22.50068620238922     ,4.322907207655246       ,        0.0 ,        0.0 , 0.0
 0.0 ,0.0 ,           0.0 ,            0.0 ,            0.0 ,            0.0 ,              0.0 ,                   0.0 ,1487.0 ,82.14332 ,-15.68055 ,           0.0 ,           0.0 ,       0.0 ,29.32292       ,-18.61284   ,-0.01011932      ,-0.0009985908    ,                 0.0 ,             0.0 ,             0.0 ,                 0.0 ,                 0.0 ,        0.0 ,1.962978044923175      ,            0.0 ,            0.0 ,            0.0 ,              0.0 ,                   0.0 ,  0.0 ,0.0 ,1393.385890627923    ,1.0                ,0.0 ,-138.45827969180817 ,-311.0068558721375  ,-9.863292556491569      ,-152.93121331720755 ,          0.0 ,          0.0 ,-137.88567152748024 ,-311.5794477455632  ,-152.93121331720755 ,-602.3963488811532  , 96.23461749059749   ,200.79877876414884  ,166.68321949028035   ,-133.53418548144677   ,-306.0827727856184  ,-9.863292556491569      ,-148.00714652159058 ,          0.0 ,          0.0 ,-132.96157731711884  ,-306.6553809499463  ,-148.00714652159058 ,-587.6241047886557  , 96.23461749059749   ,195.87466826288522   ,166.68321949028035   ,-1.505794791002139e-06  ,2.4395914596217955e-07  ,1.5636361517834903e-06  ,      0.0 ,      0.0 ,      0.0 ,6.680186765792101e-07   ,-1.9298540660972825e-06 ,      0.0 ,-1.2618356161603505e-06 ,1.381815551293858e-06  ,0.5799940799237475   ,0.15120845105712333     ,-2.775235913557492e-05  ,-1.3906479421847478e-06 ,8.42107036847116e-07   ,6.411628293951374      ,0.0 ,22.99247094026838     ,4.116022876296506       ,        0.0 ,        0.0 , 0.0
 0.0 ,0.0 ,           0.0 ,            0.0 ,            0.0 ,            0.0 ,              0.0 ,                   0.0 ,1488.0 ,81.47148 ,-15.62461 ,           0.0 ,           0.0 ,       0.0 ,29.89909       ,-18.61452   ,-0.01061643      ,0.002100943      ,                 0.0 ,             0.0 ,             0.0 ,                 0.0 ,                 0.0 ,        0.0 ,2.6731065214741356     ,            0.0 ,            0.0 ,            0.0 ,              0.0 ,                   0.0 ,  0.0 ,0.0 ,1376.0928692296834   ,1.0                ,0.0 ,-137.59555430037815 ,-311.2592134652026  ,-6.943204824533366      ,-152.802242875493   ,          0.0 ,          0.0 ,-137.2915697812857  ,-311.5631538064823  ,-152.802242875493   ,-601.656966463261   , 96.4510492171147    ,200.55229265057528  ,167.05812881531483   ,-132.6678240265811    ,-306.3314831914055  ,-6.943204824533366      ,-147.87451260169593 ,          0.0 ,          0.0 ,-132.36385099595344  ,-306.63546771049795 ,-147.87451260169593 ,-586.8738313081474  , 96.4510492171147    ,195.6246065545909    ,167.05812881531483   ,-2.2191059397196656e-06 ,3.248736282627341e-07   ,1.7380487468990566e-06  ,      0.0 ,      0.0 ,      0.0 ,7.072894067657272e-07   ,-2.6015213179108397e-06 ,      0.0 ,-1.8942324668113898e-06 ,1.7689123118011627e-06 ,0.616077962466711    ,0.14702389117458803     ,-2.472348517755654e-05  ,-1.4893843088920567e-06 ,1.75582574045986e-06   ,3.1596569997477695     ,0.0 ,26.93802154323551     ,4.362542409256422       ,        0.0 ,        0.0 , 0.0
 0.0 ,0.0 ,           0.0 ,            0.0 ,            0.0 ,            0.0 ,              0.0 ,                   0.0 ,1489.0 ,80.63041 ,-15.61545 ,           0.0 ,           0.0 ,       0.0 ,30.01143       ,-18.6166    ,-0.001249449     ,0.001470907      ,                 0.0 ,             0.0 ,             0.0 ,                 0.0 ,                 0.0 ,        0.0 ,2.5905712038334077     ,            0.0 ,            0.0 ,            0.0 ,              0.0 ,                   0.0 ,  0.0 ,0.0 ,1374.16536368351     ,1.0                ,0.0 ,-137.5899085638989  ,-311.91412806269966 ,-2.607429851480289      ,-153.03686738395325 ,          0.0 ,          0.0 ,-137.52773985417974 ,-311.97624930109225 ,-153.03686738395325 ,-602.5408170674459  , 96.55382893204941   ,200.8469363559662   ,167.23618840494498   ,-132.66494378124037   ,-306.98920275182047 ,-2.607429851480289      ,-148.11190260129473 ,          0.0 ,          0.0 ,-132.6028145433005   ,-307.0513779899867  ,-148.11190260129473 ,-587.7660951345819  , 96.55382893204941   ,195.92206504486063   ,167.23618840494498   ,-2.221843210603811e-06  ,3.295989563017862e-07   ,1.6432988674986557e-06  ,      0.0 ,      0.0 ,      0.0 ,6.361008802605454e-07   ,-2.5283448686759057e-06 ,      0.0 ,-1.8922442601864263e-06 ,1.6865074941692693e-06 ,0.458991129141612    ,0.0753377664989841      ,-6.237882717332463e-06  ,-7.216410631429273e-07  ,2.4380414352881572e-05 ,11.003255310031772     ,0.0 ,19.15953368745552     ,2.6735620406648732      ,        0.0 ,        0.0 , 0.0
 0.0 ,0.0 ,           0.0 ,            0.0 ,            0.0 ,            0.0 ,              0.0 ,                   0.0 ,1490.0 ,79.7203  ,-15.69884 ,           0.0 ,           0.0 ,       0.0 ,29.19973       ,-18.61882   ,0.006015643      ,0.002106515      ,                 0.0 ,             0.0 ,             0.0 ,                 0.0 ,                 0.0 ,        0.0 ,3.544742883217897      ,            0.0 ,            0.0 ,            0.0 ,              0.0 ,                   0.0 ,  0.0 ,0.0 ,1374.9901710907825   ,1.0                ,0.0 ,-137.90513849232497 ,-312.93692149081795 ,2.252845515698493       ,-153.49445690079625 ,          0.0 ,          0.0 ,-137.78195784818217 ,-313.06010213496074 ,-153.49445690079625 ,-604.3365769754279  , 96.98294916402921   ,201.44552267561707  ,167.979391424716     ,-132.98923968528922   ,-308.02098816374956 ,2.252845515698493       ,-148.57855809376053 ,          0.0 ,          0.0 ,-132.86602452111381  ,-308.1442232821807  ,-148.57855809376053 ,-589.588805897055   , 96.98294916402921   ,196.52961825138098   ,167.979391424716     ,-2.660925907484599e-06  ,2.164340916170009e-08   ,8.26357399179349e-07    ,      0.0 ,      0.0 ,      0.0 ,2.3993931231392323e-07  ,-2.879221865339832e-06  ,      0.0 ,-2.639282546363156e-06  ,1.7591160554805946e-06 ,0.4731863138719016   ,0.0737160144755463      ,-4.232107858909018e-06  ,-2.6355799202707767e-07 ,3.275326287933938e-05  ,9.907511348764906      ,0.0 ,19.933411347860734    ,2.698638266946314       ,        0.0 ,        0.0 , 0.0
 0.0 ,0.0 ,           0.0 ,            0.0 ,            0.0 ,            0.0 ,              0.0 ,                   0.0 ,1491.0 ,78.80028 ,-15.88981 ,           0.0 ,           0.0 ,       0.0 ,27.31217       ,-18.62102   ,0.009470622      ,0.001128034      ,                 0.0 ,             0.0 ,             0.0 ,                 0.0 ,                 0.0 ,        0.0 ,3.5423935640582638     ,            0.0 ,            0.0 ,            0.0 ,              0.0 ,                   0.0 ,  0.0 ,0.0 ,1376.0608129194916   ,1.0                ,0.0 ,-140.8933241392528  ,-316.78399665397365 ,7.361531846925605       ,-155.64283663459696 ,          0.0 ,          0.0 ,-140.48813020246098 ,-317.18919059076546 ,-155.64283663459696 ,-613.3202280787622  , 97.9397129626073    ,204.44007320001646  ,169.63654888432723   ,-135.98925675685808   ,-311.8798750322225  ,7.361531846925605       ,-150.73873990314098 ,          0.0 ,          0.0 ,-135.58403792977114  ,-312.2850938593094  ,-150.73873990314098 ,-598.6078716922216  , 97.9397129626073    ,199.53596005697813   ,169.63654888432723   ,-2.6031606531303374e-06 ,-8.261794443145207e-08  ,9.17747422332187e-07    ,      0.0 ,      0.0 ,      0.0 ,1.0893894257677083e-07  ,-2.794717606330733e-06  ,      0.0 ,-2.6857788263650075e-06 ,1.6656459219166396e-06 ,0.3239438612878095   ,0.03365486339234966     ,-2.439955238374424e-06  ,-1.2042444989311753e-07 ,4.2298219901933096e-05 ,18.854802735177344     ,0.0 ,9.107938930619618     ,1.2330570067635724      ,        0.0 ,        0.0 , 0.0
 0.0 ,0.0 ,           0.0 ,            0.0 ,            0.0 ,            0.0 ,              0.0 ,                   0.0 ,1492.0 ,77.91253 ,-16.17964 ,           0.0 ,           0.0 ,       0.0 ,24.43471       ,-18.62311   ,0.02447185       ,0.000637717      ,                 0.0 ,             0.0 ,             0.0 ,                 0.0 ,                 0.0 ,        0.0 ,2.5658443211065878     ,            0.0 ,            0.0 ,            0.0 ,              0.0 ,                   0.0 ,  0.0 ,0.0 ,1377.2807412937473   ,1.0                ,0.0 ,-145.39251336189622 ,-321.4712762355498  ,12.050857168321762      ,-158.4681980721158  ,          0.0 ,          0.0 ,-144.51966230544753 ,-322.344078813563   ,-158.4681980721158  ,-625.3319856498233  , 98.88687041948148   ,208.4440090152175   ,171.2770479608822    ,-140.50166114881867   ,-316.58041895960463 ,12.050857168321762      ,-153.57734079617063 ,          0.0 ,          0.0 ,-139.62885857080548  ,-317.45327001605335 ,-153.57734079617063 ,-610.6594693830294  , 98.88687041948148   ,203.55315882187858   ,171.2770479608822    ,-2.079793450434312e-06  ,-6.218155532095374e-08  ,1.6233462530495524e-06  ,      0.0 ,      0.0 ,      0.0 ,2.4049122164739717e-07  ,-2.3824663075812403e-06 ,      0.0 ,-2.1419754804409272e-06 ,1.4622550803965244e-06 ,0.20474275859190283  ,-5.085041712975806e-05  ,-1.1048598276871994e-06 ,0.0                     ,5.086488888036219e-05  ,24.62577316604536      ,0.0 ,0.0                   ,0.0                     ,        0.0 ,        0.0 , 0.0
 0.0 ,0.0 ,           0.0 ,            0.0 ,            0.0 ,            0.0 ,              0.0 ,                   0.0 ,1493.0 ,77.10105 ,-16.57474 ,           0.0 ,           0.0 ,       0.0 ,20.50256       ,-18.62499   ,0.03637763       ,0.000248416      ,                 0.0 ,             0.0 ,             0.0 ,                 0.0 ,                 0.0 ,        0.0 ,0.6160881009113609     ,            0.0 ,            0.0 ,            0.0 ,              0.0 ,                   0.0 ,  0.0 ,0.0 ,1377.989470881529    ,1.0                ,0.0 ,-150.71540760161471 ,-326.75177181570245 ,17.095415593314932      ,-161.71102211375086 ,          0.0 ,          0.0 ,-149.00881540592766 ,-328.4584495090256  ,-161.71102211375086 ,-639.1781942798859  ,100.14116062600263   ,213.0593828791714   ,173.44957140571316   ,-145.85506774294447   ,-321.8914319570322  ,17.095415593314932      ,-156.8506366127088  ,          0.0 ,          0.0 ,-144.14843715606753  ,-323.5980712591655  ,-156.8506366127088  ,-624.5970979214956  ,100.14116062600263   ,208.1990502716831    ,173.44957140571316   ,-1.1143767780181817e-06 ,-5.052292379938037e-07  ,9.359189539041239e-07   ,      0.0 ,      0.0 ,      0.0 ,-2.439323161716923e-07  ,-1.3756741767057012e-06 ,      0.0 ,-1.6196065233323575e-06 ,7.353263435149927e-07  ,0.41063944584878354  ,0.12355819058249136     ,-2.0729102663359033e-05 ,-9.129515010102783e-07  ,1.045515211555113e-05  ,13.428859094915357     ,0.0 ,8.114624923022        ,2.1968919593777536      ,        0.0 ,        0.0 , 0.0
 0.0 ,0.0 ,           0.0 ,            0.0 ,            0.0 ,            0.0 ,              0.0 ,                   0.0 ,1494.0 ,76.40637 ,-17.02905 ,           0.0 ,           0.0 ,       0.0 ,15.97538       ,-18.62659   ,0.03302369       ,0.0003892226     ,                 0.0 ,             0.0 ,             0.0 ,                 0.0 ,                 0.0 ,        0.0 ,1.3240696153852138     ,            0.0 ,            0.0 ,            0.0 ,              0.0 ,                   0.0 ,  0.0 ,0.0 ,1382.425844440179    ,1.0                ,0.0 ,-157.2813919765552  ,-332.8383354191748  ,21.78751696183923       ,-165.47969785442024 ,          0.0 ,          0.0 ,-154.601333214953   ,-335.51843834364763 ,-165.47969785442024 ,-655.5994252501501  ,101.45969387449601   ,218.53315645739855  ,175.73331149365183   ,-152.55047855788806   ,-328.10746612255315 ,21.78751696183923       ,-160.74882855779862 ,          0.0 ,          0.0 ,-149.87041979628586  ,-330.7875249249805  ,-160.74882855779862 ,-641.4067174011103  ,101.45969387449601   ,213.80224303873143   ,175.73331149365183   ,-1.7138526273531037e-06 ,-1.180038795103925e-06  ,1.6518554675514057e-06  ,      0.0 ,      0.0 ,      0.0 ,-5.621315944075148e-07  ,-2.3317603579223112e-06 ,      0.0 ,-2.893891864085735e-06  ,1.2178718726489486e-06 ,0.44956922082349904  ,0.21815773098239066     ,-0.00012288753047660821 ,5.090152617133355e-07   ,8.382417569471398e-06  ,10.678523798692794     ,0.0 ,6.619490780588492     ,2.568511024614681       ,        0.0 ,        0.0 , 0.0
 0.0 ,0.0 ,           0.0 ,            0.0 ,            0.0 ,            0.0 ,              0.0 ,                   0.0 ,1495.0 ,75.8807  ,-17.43955 ,           0.0 ,           0.0 ,       0.0 ,11.88234       ,-18.62779   ,0.01985213       ,-0.00103073      ,                 0.0 ,             0.0 ,             0.0 ,                 0.0 ,                 0.0 ,        0.0 ,1.7414387758110057     ,            0.0 ,            0.0 ,            0.0 ,              0.0 ,                   0.0 ,  0.0 ,0.0 ,1422.5033812586748   ,1.0                ,0.0 ,-163.28830218639084 ,-339.11579533167316 ,24.50291608481952       ,-169.08898519073637 ,          0.0 ,          0.0 ,-159.92844491803922 ,-342.4756526000248  ,-169.08898519073637 ,-671.4930996144047  ,102.85289660055466   ,223.83106653813496  ,178.14641636807787   ,-158.66241113361576   ,-334.4899744452325  ,24.50291608481952       ,-164.4631643042957  ,          0.0 ,          0.0 ,-155.30255386526417  ,-337.8497615472497  ,-164.4631643042957  ,-657.6154926448708  ,102.85289660055466   ,219.20515857975545   ,178.14641636807787   ,-1.612453660025001e-06  ,-1.6310301584554442e-06 ,1.9839362745042623e-06  ,      0.0 ,      0.0 ,      0.0 ,-6.11737015485229e-07   ,-2.6317469771390936e-06 ,      0.0 ,-3.243483818480445e-06  ,1.3814699746190775e-06 ,0.5913706912318581   ,0.3169388983355563      ,-0.00018356677476703172 ,1.3545308477466878e-06  ,2.847334879355287e-05  ,2.2937808044609214     ,0.0 ,10.397480585613241    ,3.8327391753806124      ,        0.0 ,        0.0 , 0.0
 0.0 ,0.0 ,           0.0 ,            0.0 ,            0.0 ,            0.0 ,              0.0 ,                   0.0 ,1496.0 ,75.74616 ,-18.08524 ,           0.0 ,           0.0 ,       0.0 ,5.429145       ,-18.62816   ,0.0435433        ,-0.001051271     ,                 0.0 ,             0.0 ,             0.0 ,                 0.0 ,                 0.0 ,        0.0 ,1.6735342128681878     ,            0.0 ,            0.0 ,            0.0 ,              0.0 ,                   0.0 ,  0.0 ,0.0 ,1382.0846288516054   ,1.0                ,0.0 ,-171.10486333290996 ,-350.61244145380454 ,27.968879814448393      ,-175.17821719036922 ,          0.0 ,          0.0 ,-166.76380775681747 ,-354.9534970298971  ,-175.17821719036922 ,-696.8955660162999  ,106.3102957166671    ,232.2985515412208   ,184.134860209189     ,-167.65889366298975   ,-347.16650495939336 ,27.968879814448393      ,-171.73229208859544 ,          0.0 ,          0.0 ,-163.31782669425982  ,-351.50752735997685 ,-171.73229208859544 ,-686.5576461428321  ,106.3102957166671    ,228.8525378320845    ,184.134860209189     ,-1.5019485746149772e-06 ,-6.442696483430981e-06  ,2.854126956711299e-06   ,      0.0 ,      0.0 ,      0.0 ,-7.924555902759911e-07  ,-7.1521888621401055e-06 ,      0.0 ,-7.944643736869475e-06  ,3.9316648752266835e-06 ,0.668874237101858    ,0.5498266670536894      ,-0.0007261287310871444  ,-1.0841655800717105e-05 ,0.000541169758719132   ,0.22956270916396126    ,0.0 ,6.450620519178997     ,3.2336115730131363      ,        0.0 ,        0.0 , 0.0
 0.0 ,0.0 ,           0.0 ,            0.0 ,            0.0 ,            0.0 ,              0.0 ,                   0.0 ,1497.0 ,75.63619 ,-18.89692 ,           0.0 ,           0.0 ,       0.0 ,-2.684215      ,-18.6285    ,0.06194322       ,0.0008270381     ,                 0.0 ,             0.0 ,             0.0 ,                 0.0 ,                 0.0 ,        0.0 ,1.4661852181362005     ,            0.0 ,            0.0 ,            0.0 ,              0.0 ,                   0.0 ,  0.0 ,0.0 ,1369.7943590674454   ,0.9999999999999999 ,0.0 ,-178.70984963793865 ,-366.42730358784814 ,29.55888843768509       ,-182.88312663272472 ,          0.0 ,          0.0 ,-174.03976225917927 ,-371.09739096660746 ,-182.88312663272472 ,-728.0203202645253  ,111.31199587648617   ,242.673471258931    ,192.79807697298838   ,-180.1021950815807    ,-367.81964903149014 ,29.55888843768509       ,-184.27547207636678 ,          0.0 ,          0.0 ,-175.43210770282133  ,-372.4897364102495  ,-184.27547207636678 ,-732.19732267717    ,111.31199587648617   ,244.06577629655936   ,192.79807697298838   ,-1.308003393935624e-06  ,-1.3412629039783573e-05 ,3.995438651223386e-06   ,      0.0 ,      0.0 ,      0.0 ,-9.844890163190712e-07  ,-1.3736140919686615e-05 ,      0.0 ,-1.4720629174209907e-05 ,7.662647727299618e-06  ,0.6643781495182686   ,0.8597018602616202      ,-0.0024286012569125605  ,-5.4876521997351195e-06 ,0.00014983709546030974 ,-0.37920193457342566   ,0.0 ,-0.7670999230519384   ,-1.0107058992044324     ,        0.0 ,        0.0 , 0.0
 0.0 ,0.0 ,           0.0 ,            0.0 ,            0.0 ,            0.0 ,              0.0 ,                   0.0 ,1498.0 ,75.61287 ,-19.78123 ,           0.0 ,           0.0 ,       0.0 ,-11.52542      ,-18.62869   ,0.0652214        ,-0.000999194     ,                 0.0 ,             0.0 ,             0.0 ,                 0.0 ,                 0.0 ,        0.0 ,1.9507847602441646     ,            0.0 ,            0.0 ,            0.0 ,              0.0 ,                   0.0 ,  0.0 ,0.0 ,1370.8496410292632   ,1.0                ,0.0 ,-185.17406118421098 ,-380.4339976989796  ,29.744222536624054      ,-189.94340503015218 ,          0.0 ,          0.0 ,-180.35896696435765 ,-385.249044379595   ,-189.94340503015218 ,-755.5514161027796  ,115.62698301255966   ,251.85047358432615  ,200.27178455879744   ,-195.92203830112328   ,-391.1819748158918  ,29.744222536624054      ,-200.69138214706445 ,          0.0 ,          0.0 ,-191.1069916205079   ,-395.9970690357452  ,-200.69138214706445 ,-787.7954906138807  ,115.62698301255966   ,262.59849851180155   ,200.27178455879744   ,-9.000661130143886e-07  ,-1.3315166169389333e-05 ,5.312871114045634e-06   ,      0.0 ,      0.0 ,      0.0 ,-3.530980217960925e-07  ,-1.3862131395747788e-05 ,      0.0 ,-1.4215229044693373e-05 ,7.90378602466386e-06   ,0.8161466115234216   ,0.5207901633721765      ,-0.002942229560061079   ,-5.775745498659989e-06  ,0.0011042064709133605  ,-2.809439147162767     ,0.0 ,-7.935631552014359    ,-7.935631552014359      ,        0.0 ,        0.0 , 0.0
 0.0 ,0.0 ,           0.0 ,            0.0 ,            0.0 ,            0.0 ,              0.0 ,                   0.0 ,1499.0 ,76.66523 ,-20.35504 ,           0.0 ,           0.0 ,       0.0 ,-17.28555      ,-18.62649   ,-0.004124354     ,0.007031882      ,                 0.0 ,             0.0 ,             0.0 ,                 0.0 ,                 0.0 ,        0.0 ,3.427870520996078      ,            0.0 ,            0.0 ,            0.0 ,              0.0 ,                   0.0 ,  0.0 ,0.0 ,1393.0570985344639   ,1.0                ,0.0 ,-191.66016383926504 ,-398.15961858731197 ,17.836174300968572      ,-198.66314477454443 ,          0.0 ,          0.0 ,-190.03077829743447 ,-399.7889298495012  ,-198.66314477454443 ,-788.4829101344279  ,118.69777981590515   ,262.82764240037375  ,205.59056761794716   ,-208.53820543958147   ,-415.0376601876283  ,17.836174300968572      ,-215.5411863748608  ,          0.0 ,          0.0 ,-206.9088771106988   ,-416.6670286627655  ,-215.5411863748608  ,-839.1170921483251  ,118.69777981590515   ,279.7056840006902    ,205.59056761794716   ,-9.073419814687119e-07  ,-1.216021277119712e-05  ,2.7351985716129644e-06  ,      0.0 ,      0.0 ,      0.0 ,-6.60604847796522e-07   ,-1.240695232697173e-05  ,      0.0 ,-1.3067556237239942e-05 ,6.984345974733025e-06  ,0.6989534182031778   ,0.8288922169119707      ,-0.004087413422661067   ,-2.1947181518168167e-05 ,0.0004408854270790932  ,-1.6652794613520039    ,0.0 ,-15.2086972141766     ,-15.2086972141766       ,        0.0 ,        0.0 , 0.0
 0.0 ,0.0 ,           0.0 ,            0.0 ,            0.0 ,            0.0 ,              0.0 ,                   0.0 ,1500.0 ,76.92178 ,-21.16848 ,           0.0 ,           0.0 ,       0.0 ,-25.42391      ,-18.62609   ,0.003443709      ,0.005910426      ,                 0.0 ,             0.0 ,             0.0 ,                 0.0 ,                 0.0 ,        0.0 ,3.7561880914176573     ,            0.0 ,            0.0 ,            0.0 ,              0.0 ,                   0.0 ,  0.0 ,0.0 ,1391.6464330533618   ,1.0                ,0.0 ,-201.12378969180753 ,-410.5555722627224  ,15.965672762669946      ,-205.5726449720247  ,          0.0 ,          0.0 ,-199.82359750367647 ,-411.8557731314436  ,-205.5726449720247  ,-817.2520399883356  ,120.79986643491091   ,272.4173466627785   ,209.23150693242178   ,-225.33125669818355   ,-434.76303926909844 ,15.965672762669946      ,-229.78011197840073 ,          0.0 ,          0.0 ,-224.03108889124337  ,-436.06323145722956 ,-229.78011197840073 ,-889.8744323268736  ,120.79986643491091   ,296.6248136691546    ,209.23150693242178   ,-1.0109382740535338e-06 ,-1.5663888425856617e-05 ,2.393392633186388e-06   ,      0.0 ,      0.0 ,      0.0 ,-8.651344176378019e-07  ,-1.5809695380732153e-05 ,      0.0 ,-1.6674828781571468e-05 ,8.889733464457826e-06  ,0.7505633598153598   ,0.6685324374773892      ,-0.002573893728671397   ,-2.7557379726855002e-05 ,0.0008499254857767219  ,-9.720142422715819     ,0.0 ,-14.484764951068193   ,-14.484764951068193     ,        0.0 ,        0.0 , 0.0
 0.0 ,0.0 ,           0.0 ,            0.0 ,            0.0 ,            0.0 ,              0.0 ,                   0.0 ,1501.0 ,77.34027 ,-21.91639 ,           0.0 ,           0.0 ,       0.0 ,-32.91031      ,-18.62535   ,0.007050343      ,-0.002461629     ,                 0.0 ,             0.0 ,             0.0 ,                 0.0 ,                 0.0 ,        0.0 ,3.0061560315928118     ,            0.0 ,            0.0 ,            0.0 ,              0.0 ,                   0.0 ,  0.0 ,0.0 ,1393.0324022602379   ,1.0                ,0.0 ,-208.39774196294888 ,-420.52178998407703 ,13.699053007565766      ,-211.1927298424072  ,          0.0 ,          0.0 ,-207.48063950513318 ,-421.4389206468762  ,-211.1927298424072  ,-840.1123148405159  ,122.47234406309735   ,280.03743828017195  ,212.12831281152975   ,-239.94246349384264   ,-452.06648666887156 ,13.699053007565766      ,-242.73745137330096 ,          0.0 ,          0.0 ,-239.0253361899277   ,-452.9836139727865  ,-242.73745137330096 ,-934.746277305519   ,122.47234406309735   ,311.5821349649665    ,212.12831281152975   ,-8.972053654454099e-07  ,-1.36812770238187e-05   ,1.4810309713732723e-06  ,      0.0 ,      0.0 ,      0.0 ,-8.516376398075526e-07  ,-1.3726848035880766e-05 ,      0.0 ,-1.4578484549270635e-05 ,7.691234835796833e-06  ,0.8199892126944037   ,0.4682344174219758      ,-0.0012985624335930162  ,-2.7050205530292913e-05 ,0.001259438659801672   ,-19.650944587948935    ,0.0 ,-11.892536328670188   ,-11.892536328670188     ,        0.0 ,        0.0 , 0.0
 0.0 ,0.0 ,           0.0 ,            0.0 ,            0.0 ,            0.0 ,              0.0 ,                   0.0 ,1502.0 ,77.83541 ,-22.63132 ,           0.0 ,           0.0 ,       0.0 ,-40.06845      ,-18.62447   ,-0.000162646     ,-0.005882666     ,                 0.0 ,             0.0 ,             0.0 ,                 0.0 ,                 0.0 ,        0.0 ,1.2302608415258334     ,            0.0 ,            0.0 ,            0.0 ,              0.0 ,                   0.0 ,  0.0 ,0.0 ,1394.0307417438362   ,1.0                ,0.0 ,-213.76487254563818 ,-428.1200817273194  ,11.930483052320051      ,-215.54920938886715 ,          0.0 ,          0.0 ,-213.08707195539904 ,-428.7978823175586  ,-215.54920938886715 ,-857.4342383044421  ,123.83784061886806   ,285.8114199669986   ,214.49339662388664   ,-252.92817020515002   ,-467.2833047442139  ,11.930483052320051      ,-254.71250704837894 ,          0.0 ,          0.0 ,-252.25031656884713  ,-467.9611799770704  ,-254.71250704837894 ,-974.9237383639778  ,123.83784061886806   ,324.9746429838931    ,214.49339662388664   ,-3.420042446051975e-07  ,-8.860455964426819e-06  ,8.874864501320354e-07   ,      0.0 ,      0.0 ,      0.0 ,-3.186566391344147e-07  ,-8.88380529740197e-06   ,      0.0 ,-9.202460445851393e-06  ,5.041588113512047e-06  ,0.8165020159391049   ,0.4684081795200632      ,-0.0012943661802663788  ,-2.9865981448421468e-05 ,0.001140867528292049   ,-24.247445288677554    ,0.0 ,-14.914660171966727   ,-14.914660171966727     ,        0.0 ,        0.0 , 0.0
 0.0 ,0.0 ,           0.0 ,            0.0 ,            0.0 ,            0.0 ,              0.0 ,                   0.0 ,1503.0 ,78.37764 ,-23.30864 ,           0.0 ,           0.0 ,       0.0 ,-46.85144      ,-18.6235    ,-0.009227368     ,-0.001648893     ,                 0.0 ,             0.0 ,             0.0 ,                 0.0 ,                 0.0 ,        0.0 ,0.9799230110766223     ,            0.0 ,            0.0 ,            0.0 ,              0.0 ,                   0.0 ,  0.0 ,0.0 ,1395.139075718905    ,1.0                ,0.0 ,-219.35496484607376 ,-435.5698396364341  ,9.958231655151044       ,-219.34917457379566 ,          0.0 ,          0.0 ,-218.89151333962633 ,-436.0332911428816  ,-219.34917457379566 ,-874.2740282111359  ,125.23518468768803   ,291.4246917860898   ,216.91367171866594   ,-264.18959245430983   ,-480.4043672446702  ,9.958231655151044       ,-264.1838021820317  ,          0.0 ,          0.0 ,-263.7261389401635   ,-480.86786790595    ,-264.1838021820317  ,-1008.7776464541477 ,125.23518468768803   ,336.2592702394935    ,216.91367171866594   ,6.793526880928993e-07   ,-2.001052760532524e-05  ,2.3346293171885173e-06  ,      0.0 ,      0.0 ,      0.0 ,7.450479423565016e-07   ,-2.0076221738961796e-05 ,      0.0 ,-1.9331170169225474e-05 ,1.1817795293260586e-05 ,0.6076206838502282   ,0.9798801978212847      ,-0.002219688314379466   ,-7.361530852591032e-05  ,4.3179800924386635e-05 ,-0.915550641143061     ,0.0 ,-43.9168210628546     ,-43.9168210628546       ,        0.0 ,        0.0 , 0.0
 0.0 ,0.0 ,           0.0 ,            0.0 ,            0.0 ,            0.0 ,              0.0 ,                   0.0 ,1504.0 ,78.91603 ,-23.95399 ,           0.0 ,           0.0 ,       0.0 ,-53.31428      ,-18.62256   ,-0.006309524     ,0.0007749315     ,                 0.0 ,             0.0 ,             0.0 ,                 0.0 ,                 0.0 ,        0.0 ,1.5368859176413743     ,            0.0 ,            0.0 ,            0.0 ,              0.0 ,                   0.0 ,  0.0 ,0.0 ,1390.4076090655026   ,1.0                ,0.0 ,-223.23906096975008 ,-441.5564905384053  ,8.261007252458988       ,-222.98180600529724 ,          0.0 ,          0.0 ,-222.92462863655155 ,-441.8709228399431  ,-222.98180600529724 ,-887.7774037932002  ,126.39220236112146   ,295.92579881589245  ,218.91773234748422   ,-275.13339238025696   ,-493.45082198057287 ,8.261007252458988       ,-274.87613741580407 ,          0.0 ,          0.0 ,-274.8189600787191   ,-493.76530059351893 ,-274.87613741580407 ,-1043.460605401904  ,126.39220236112146   ,347.82013025806003   ,218.91773234748422   ,7.11532127619023e-07    ,-1.80519285587845e-05   ,2.0885976337836495e-06  ,      0.0 ,      0.0 ,      0.0 ,7.700398920934175e-07   ,-1.8110434642153687e-05 ,      0.0 ,-1.7340397738678947e-05 ,1.0703870842663212e-05 ,0.783810966549577    ,0.5355188474718686      ,-0.0020691309897498157  ,-8.25986210980835e-05   ,0.00105123775946679    ,-21.48406429440771     ,0.0 ,-30.408241318749244   ,-30.408241318749244     ,        0.0 ,        0.0 , 0.0
 0.0 ,0.0 ,           0.0 ,            0.0 ,            0.0 ,            0.0 ,              0.0 ,                   0.0 ,1505.0 ,79.74297 ,-23.67267 ,           0.0 ,           0.0 ,       0.0 ,-50.51989      ,-18.62068   ,0.004667676      ,-0.0005784096    ,                 0.0 ,             0.0 ,             0.0 ,                 0.0 ,                 0.0 ,        0.0 ,1.0417015753939032     ,            0.0 ,            0.0 ,            0.0 ,              0.0 ,                   0.0 ,  0.0 ,0.0 ,1387.2260441703163   ,1.0                ,0.0 ,-220.31463927678317 ,-437.1717182433699  ,4.4882521651713905      ,-220.9181055720261  ,          0.0 ,          0.0 ,-220.2168461218798  ,-437.26946055654423 ,-220.9181055720261  ,-878.4044122504502  ,125.1138628092888    ,292.8014854784408   ,216.70350153566739   ,-270.34711101178476   ,-487.2042408201006  ,4.4882521651713905      ,-270.95062397859925 ,          0.0 ,          0.0 ,-270.2493686986105   ,-487.3019831332749  ,-270.95062397859925 ,-1028.5020191921158 ,125.1138628092888    ,342.83400805517147   ,216.70350153566739   ,-2.861113269202231e-07  ,-8.09212359997349e-06   ,8.631303991119384e-07   ,      0.0 ,      0.0 ,      0.0 ,-2.6164408255577473e-07 ,-8.116594099316344e-06  ,      0.0 ,-8.378239402073617e-06  ,4.613540712277008e-06  ,0.8132966319191658   ,0.46472627442806785     ,-0.001109964547686535   ,-0.00016970320146437667 ,0.0019914221231558957  ,-29.08997930799004     ,0.0 ,-20.941506161148624   ,-20.941506161148624     ,        0.0 ,        0.0 , 0.0
 0.0 ,0.0 ,           0.0 ,            0.0 ,            0.0 ,            0.0 ,              0.0 ,                   0.0 ,1506.0 ,80.58771 ,-23.33893 ,           0.0 ,           0.0 ,       0.0 ,-47.20218      ,-18.61872   ,0.00546713       ,-0.005003477     ,                 0.0 ,             0.0 ,             0.0 ,                 0.0 ,                 0.0 ,        0.0 ,0.007859518813638805   ,            0.0 ,            0.0 ,            0.0 ,              0.0 ,                   0.0 ,  0.0 ,0.0 ,1389.1087865213701   ,1.0                ,0.0 ,-217.57671370165096 ,-435.4810154246387  ,0.19292969063105891     ,-219.58355394236213 ,          0.0 ,          0.0 ,-217.5252875582716  ,-435.53244235397005 ,-219.58355394236213 ,-872.6413326456179  ,125.27693408285711   ,290.88047728655533  ,216.98604879029222   ,-264.76259405212966   ,-482.6668957751174  ,0.19292969063105891     ,-266.769483143971   ,          0.0 ,          0.0 ,-264.7111671227983   ,-482.7183227044487  ,-266.769483143971   ,-1014.198972971218  ,125.27693408285711   ,338.066357637034     ,216.98604879029222   ,-9.98445761768826e-10   ,-1.4923426397291766e-07 ,-1.45630517406488e-09   ,      0.0 ,      0.0 ,      0.0 ,-9.94868894756739e-10   ,-1.4923787935157194e-07 ,      0.0 ,-1.5023273724300234e-07 ,8.587671793647186e-08  ,0.6035780613582256   ,1.0                     ,-0.002195134554782448   ,-0.000399908606204254   ,0.0                    ,0.0022317326818833394  ,0.0 ,-47.18590004812114    ,-47.18590004812114      ,        0.0 ,        0.0 , 0.0
 0.0 ,0.0 ,           0.0 ,            0.0 ,            0.0 ,            0.0 ,              0.0 ,                   0.0 ,1507.0 ,81.42348 ,-22.92812 ,           0.0 ,           0.0 ,       0.0 ,-43.11431      ,-18.61669   ,0.001873036      ,-0.004900582     ,                 0.0 ,             0.0 ,             0.0 ,                 0.0 ,                 0.0 ,        0.0 ,0.4916509286531894     ,            0.0 ,            0.0 ,            0.0 ,              0.0 ,                   0.0 ,  0.0 ,0.0 ,1389.7302002137956   ,1.0                ,0.0 ,-214.4965069063781  ,-433.8096748988434  ,-3.805403988872761      ,-217.9684651581249  ,          0.0 ,          0.0 ,-214.42637681009873 ,-433.8798538446607  ,-217.9684651581249  ,-866.2746977982534  ,125.69227173772225   ,288.7582496495719   ,217.70544500875926   ,-256.5987659965356    ,-475.9119339890009  ,-3.805403988872761      ,-260.0706753987444  ,          0.0 ,          0.0 ,-256.5285873662731   ,-475.98211293481813 ,-260.0706753987444  ,-992.5813756998356  ,125.69227173772225   ,330.8605087397293    ,217.70544500875926   ,-6.166497436267465e-08  ,-9.335050974194642e-06  ,-9.588236520122314e-08  ,      0.0 ,      0.0 ,      0.0 ,-6.13228975712182e-08   ,-9.335395435146817e-06  ,      0.0 ,-9.396717665864464e-06  ,5.372177508632725e-06  ,0.611728875819929    ,1.0                     ,-0.0022620411458297842  ,-0.000277137585500218   ,0.0                    ,0.002285504076699909   ,0.0 ,-42.10224941491634    ,-42.10224941491634      ,        0.0 ,        0.0 , 0.0
 0.0 ,0.0 ,           0.0 ,            0.0 ,            0.0 ,            0.0 ,              0.0 ,                   0.0 ,1508.0 ,82.23967 ,-22.46657 ,           0.0 ,           0.0 ,       0.0 ,-38.51933      ,-18.61464   ,-0.0008744166    ,0.001736533      ,                 0.0 ,             0.0 ,             0.0 ,                 0.0 ,                 0.0 ,        0.0 ,0.9932697309143137     ,            0.0 ,            0.0 ,            0.0 ,              0.0 ,                   0.0 ,  0.0 ,0.0 ,1390.577270318121    ,0.9999999999999999 ,0.0 ,-212.27557233803125 ,-432.2372301766568  ,-9.856326890216987      ,-216.55981468753777 ,          0.0 ,          0.0 ,-211.71563879717422 ,-432.7972118571995  ,-216.55981468753777 ,-861.0726178752527  ,126.26651182295095   ,287.024223245189    ,218.69999713599248   ,-248.751371264341     ,-468.7130291029665  ,-9.856326890216987      ,-253.0355654741618  ,          0.0 ,          0.0 ,-248.19144077108567  ,-469.2730107835092  ,-253.0355654741618  ,-970.5000170287567  ,126.26651182295095   ,323.50002217149876   ,218.69999713599248   ,2.3952739409059827e-09  ,-1.881542561218745e-05  ,-9.599822269192961e-07  ,      0.0 ,      0.0 ,      0.0 ,2.204146883028947e-08   ,-1.8835072630302812e-05 ,      0.0 ,-1.8813033251630437e-05 ,1.0881034042275664e-05 ,0.6194198335789      ,0.9999999999999999      ,-0.002334950511629983   ,-0.0001270051557524557  ,0.0                    ,0.002338613448377557   ,0.0 ,-36.47580465455883    ,-36.47580465455883      ,        0.0 ,        0.0 , 0.0
 0.0 ,0.0 ,           0.0 ,            0.0 ,            0.0 ,            0.0 ,              0.0 ,                   0.0 ,1509.0 ,83.0188  ,-21.97219 ,           0.0 ,           0.0 ,       0.0 ,-33.59602      ,-18.61259   ,-0.00395696      ,0.004373715      ,                 0.0 ,             0.0 ,             0.0 ,                 0.0 ,                 0.0 ,        0.0 ,2.53327314121786       ,            0.0 ,            0.0 ,            0.0 ,              0.0 ,                   0.0 ,  0.0 ,0.0 ,1391.3333804458277   ,1.0                ,0.0 ,-209.69776553265473 ,-427.6664102613811  ,-14.948168574966765     ,-214.23511379652848 ,          0.0 ,          0.0 ,-208.54996653676875 ,-428.81416220383494 ,-214.23511379652848 ,-851.599340699669   ,125.56066194072221   ,283.8664147915317   ,217.4773822525092    ,-241.37086841411056   ,-459.339513142837   ,-14.948168574966765     ,-245.90821667798434 ,          0.0 ,          0.0 ,-240.22307125568773  ,-460.4872650852908  ,-245.90821667798434 ,-946.6186000723951  ,125.56066194072221   ,315.5395176729876    ,217.4773822525092    ,-7.112140135203865e-07  ,-1.821849144564993e-05  ,-2.292986887207989e-06  ,      0.0 ,      0.0 ,      0.0 ,-6.082232435381139e-07  ,-1.8321482968528e-05    ,      0.0 ,-1.8929708492796086e-05 ,1.0406942449779728e-05 ,0.8008854537994392   ,0.5283587910239946      ,-0.0014771852333674243  ,-8.942886364316851e-05  ,0.0011081205614605434  ,-13.876982097278031    ,0.0 ,-17.794683392774722   ,-17.794683392774722     ,        0.0 ,        0.0 , 0.0
 0.0 ,0.0 ,           0.0 ,            0.0 ,            0.0 ,            0.0 ,              0.0 ,                   0.0 ,1510.0 ,83.75794 ,-21.48229 ,           0.0 ,           0.0 ,       0.0 ,-28.71707      ,-18.61059   ,-0.004388899     ,0.005213042      ,                 0.0 ,             0.0 ,             0.0 ,                 0.0 ,                 0.0 ,        0.0 ,1.008198519175445      ,            0.0 ,            0.0 ,            0.0 ,              0.0 ,                   0.0 ,  0.0 ,0.0 ,1396.970969712906    ,1.0                ,0.0 ,-206.25991813574137 ,-422.15307736793557 ,-20.11250024594762      ,-211.2648276298491  ,          0.0 ,          0.0 ,-204.28296558103358 ,-424.13008384495424 ,-211.2648276298491  ,-839.6778231335261  ,124.96214136941879   ,279.89261032604924  ,216.4408323510782    ,-232.9169762246271    ,-448.8101812612265  ,-20.11250024594762      ,-237.92193152313996 ,          0.0 ,          0.0 ,-230.93996974760842  ,-450.78718773824505 ,-237.92193152313996 ,-919.6489892822776  ,124.96214136941879   ,306.5496605703133    ,216.4408323510782    ,-7.509626768620447e-07  ,-1.816122592611914e-05  ,-2.4450835718484876e-06 ,      0.0 ,      0.0 ,      0.0 ,-6.589993363670814e-07  ,-1.825319004339323e-05  ,      0.0 ,-1.8912186512998213e-05 ,1.0354345574206454e-05 ,0.8295565082182793   ,0.4594788403120105      ,-0.001176863293731867   ,-5.173432451592114e-05  ,0.0013004542555740425  ,-15.243978972641951    ,0.0 ,-11.41197833476349    ,-11.41197833476349      ,        0.0 ,        0.0 , 0.0
 0.0 ,0.0 ,           0.0 ,            0.0 ,            0.0 ,            0.0 ,              0.0 ,                   0.0 ,1511.0 ,83.52957 ,-20.63901 ,           0.0 ,           0.0 ,       0.0 ,-20.2826       ,-18.61075   ,0.00406761       ,0.005487783      ,                 0.0 ,             0.0 ,             0.0 ,                 0.0 ,                 0.0 ,        0.0 ,2.083888795468249      ,            0.0 ,            0.0 ,            0.0 ,              0.0 ,                   0.0 ,  0.0 ,0.0 ,1393.8442251091012   ,1.0                ,0.0 ,-194.71569422333866 ,-407.26986228173735 ,-16.44376790388958      ,-202.99769201518612 ,          0.0 ,          0.0 ,-193.37214208653378 ,-408.61346764922905 ,-202.99769201518612 ,-804.9832507871959  ,121.58646304115678   ,268.3277672503163   ,210.5940334715419    ,-214.06540525701405   ,-426.6195200847259  ,-16.44376790388958      ,-222.34734981817468 ,          0.0 ,          0.0 ,-212.72179988952234  ,-427.9631254522176  ,-222.34734981817468 ,-863.0323219292278  ,121.58646304115678   ,287.67742505330483   ,210.5940334715419    ,-1.0146127996359334e-06 ,-9.110362845882166e-06  ,-1.904766774765156e-06  ,      0.0 ,      0.0 ,      0.0 ,-9.029521208043272e-07  ,-9.222026446522919e-06  ,      0.0 ,-1.0124978658004603e-05 ,5.083829854869231e-06  ,0.8301794545602249   ,0.46619857762904665     ,-0.0012085544962069476  ,-0.00018438366772070903 ,0.0014962128518391     ,-10.896697524351154    ,0.0 ,-8.451827572135313    ,-8.451827572135313      ,        0.0 ,        0.0 , 0.0
 0.0 ,0.0 ,           0.0 ,            0.0 ,            0.0 ,            0.0 ,              0.0 ,                   0.0 ,1512.0 ,83.26596 ,-19.76316 ,           0.0 ,           0.0 ,       0.0 ,-11.52112      ,-18.61105   ,0.00371077       ,0.004029023      ,                 0.0 ,             0.0 ,             0.0 ,                 0.0 ,                 0.0 ,        0.0 ,2.5170614849137256     ,            0.0 ,            0.0 ,            0.0 ,              0.0 ,                   0.0 ,  0.0 ,0.0 ,1395.006464326706    ,1.0                ,0.0 ,-184.6764308197371  ,-391.4577674057087  ,-16.005142648990784     ,-194.66302730805847 ,          0.0 ,          0.0 ,-183.3231417481098  ,-392.811106848814   ,-194.66302730805847 ,-770.7973234558779  ,117.81191576692916   ,256.93244115195927  ,204.05624279604825   ,-196.18305329869997   ,-402.96429403992454 ,-16.005142648990784     ,-206.16959941554336 ,          0.0 ,          0.0 ,-194.82966838232562  ,-404.31763140540335 ,-206.16959941554336 ,-805.3168992032723  ,117.81191576692916   ,268.4389657085486    ,204.05624279604825   ,-1.0090362272704905e-06 ,-9.000686266849465e-06  ,1.905604129507229e-07   ,      0.0 ,      0.0 ,      0.0 ,-9.3925329494575e-07    ,-9.070466194880624e-06  ,      0.0 ,-1.0009721287707281e-05 ,4.991000877809336e-06  ,0.9928508208009383   ,0.015710526401801515    ,-0.00021011043520601763 ,-1.2029099962960046e-06 ,0.0050680928713883275  ,-11.437308717041326    ,0.0 ,-0.06917924828538453  ,-0.06917924828538453    ,        0.0 ,        0.0 , 0.0
 0.0 ,0.0 ,           0.0 ,            0.0 ,            0.0 ,            0.0 ,              0.0 ,                   0.0 ,1513.0 ,82.93969 ,-18.88379 ,           0.0 ,           0.0 ,       0.0 ,-2.722202      ,-18.61157   ,-0.009342538     ,0.002913031      ,                 0.0 ,             0.0 ,             0.0 ,                 0.0 ,                 0.0 ,        0.0 ,3.013203180234643      ,            0.0 ,            0.0 ,            0.0 ,              0.0 ,                   0.0 ,  0.0 ,0.0 ,1396.0550522433964   ,0.9999999999999999 ,0.0 ,-176.3171198591489  ,-375.3281788138666  ,-14.288864795007838     ,-186.50669818273323 ,          0.0 ,          0.0 ,-175.1995951003339  ,-376.4457035726816  ,-186.50669818273323 ,-738.152019107398   ,113.06954270536541   ,246.05066454379568  ,195.8421792616317    ,-180.8359275655954    ,-379.8469655889819  ,-14.288864795007838     ,-191.02550588917973 ,          0.0 ,          0.0 ,-179.71838187544924  ,-380.96446355146793 ,-191.02550588917973 ,-751.7083513160968  ,113.06954270536541   ,250.56944999859297   ,195.8421792616317    ,-1.4045688510998654e-06 ,-7.355346182871591e-06  ,1.1892019932945525e-07  ,      0.0 ,      0.0 ,      0.0 ,-8.324615977813281e-07  ,-7.927452073497415e-06  ,      0.0 ,-8.759913726079742e-06  ,4.3608936538792784e-06 ,0.8200932845976875   ,0.3579637824493769      ,-0.0008639649978723965  ,-1.5760552656358538e-05 ,0.003019617850621024   ,-4.811608042859787     ,0.0 ,2.3555753792005607    ,0.29361201867142306     ,        0.0 ,        0.0 , 0.0
 0.0 ,0.0 ,           0.0 ,            0.0 ,            0.0 ,            0.0 ,              0.0 ,                   0.0 ,1514.0 ,82.56815 ,-18.01852 ,           0.0 ,           0.0 ,       0.0 ,5.937646       ,-18.61228   ,-0.02188389      ,0.002928118      ,                 0.0 ,             0.0 ,             0.0 ,                 0.0 ,                 0.0 ,        0.0 ,2.0153380943987353     ,            0.0 ,            0.0 ,            0.0 ,              0.0 ,                   0.0 ,  0.0 ,0.0 ,1397.0683280529634   ,1.0                ,0.0 ,-167.25802158561862 ,-360.244276751247   ,-12.070736430225233     ,-178.66614636675442 ,          0.0 ,          0.0 ,-166.46368855990207 ,-361.03860977696354 ,-178.66614636675442 ,-706.1684403211584  ,108.98920618823762   ,235.38946270997587  ,188.77482864643622   ,-166.26953849521504   ,-359.2557689895541  ,-12.070736430225233     ,-177.67766327635087 ,          0.0 ,          0.0 ,-165.47518079820918  ,-360.0501020152707  ,-177.67766327635087 ,-703.2029229523508  ,108.98920618823762   ,234.40098400203394   ,188.77482864643622   ,-1.8133822647486006e-06 ,-2.3965451650364395e-06 ,6.204001911177315e-07   ,      0.0 ,      0.0 ,      0.0 ,-7.871552607152234e-07  ,-3.4227724518486078e-06 ,      0.0 ,-4.209927641398615e-06  ,1.8429435299706373e-06 ,0.6874922625778771   ,0.1889600192634586      ,-0.00014588783483045393 ,-5.038411987503637e-07  ,0.0016031714935086535  ,-0.02956734275379791   ,0.0 ,6.653619935458217     ,2.4293948018730953      ,        0.0 ,        0.0 , 0.0
 0.0 ,0.0 ,           0.0 ,            0.0 ,            0.0 ,            0.0 ,              0.0 ,                   0.0 ,1515.0 ,82.1714  ,-17.18615 ,           0.0 ,           0.0 ,       0.0 ,14.26938       ,-18.61308   ,-0.02194624      ,0.002574387      ,                 0.0 ,             0.0 ,             0.0 ,                 0.0 ,                 0.0 ,        0.0 ,0.5113179389367574     ,            0.0 ,            0.0 ,            0.0 ,              0.0 ,                   0.0 ,  0.0 ,0.0 ,1397.8526270356106   ,1.0                ,0.0 ,-157.34589809009333 ,-345.6977701807481  ,-10.285743314177768     ,-170.68652790937244 ,          0.0 ,          0.0 ,-156.7647353414813  ,-346.27893292936005 ,-170.68652790937244 ,-673.7301895985318  ,105.62874343902986   ,224.5767121025636   ,182.9543714689981    ,-152.65518928447426   ,-341.00706137512896 ,-10.285743314177768     ,-165.9957680242298  ,          0.0 ,          0.0 ,-152.07402653586217  ,-341.58822412374104 ,-165.9957680242298  ,-659.657971974674   ,105.62874343902986   ,219.88595879910295   ,182.9543714689981    ,-1.0480895904903386e-06 ,-1.463988832685653e-06  ,-3.1222243364400117e-07 ,      0.0 ,      0.0 ,      0.0 ,-9.537196332056457e-07  ,-1.5583587988156157e-06 ,      0.0 ,-2.5120784342325783e-06 ,7.887352011429178e-07  ,0.5542474698683025   ,0.13426407698380888     ,-2.4244053218881054e-05 ,-1.6072517876145018e-06 ,8.534636810647224e-05  ,4.962031221227327      ,0.0 ,10.29230715269266     ,2.5776356050100966      ,        0.0 ,        0.0 , 0.0
 0.0 ,0.0 ,           0.0 ,            0.0 ,            0.0 ,            0.0 ,              0.0 ,                   0.0 ,1516.0 ,81.77354 ,-16.39752 ,           0.0 ,           0.0 ,       0.0 ,22.164         ,-18.61392   ,-0.01373576      ,0.001805479      ,                 0.0 ,             0.0 ,             0.0 ,                 0.0 ,                 0.0 ,        0.0 ,2.5378356526522676     ,            0.0 ,            0.0 ,            0.0 ,              0.0 ,                   0.0 ,  0.0 ,0.0 ,1398.7462429959717   ,1.0                ,0.0 ,-147.39342201185877 ,-328.7566507519316  ,-8.420730962443754      ,-161.87336362848623 ,          0.0 ,          0.0 ,-146.99313692829793 ,-329.15693583549245 ,-161.87336362848623 ,-638.0233902961163  ,101.15163503186439   ,212.67443009870544  ,175.19975464105352   ,-142.52743147768956   ,-323.89066021776233 ,-8.420730962443754      ,-157.00737303417975 ,          0.0 ,          0.0 ,-142.1271463941287   ,-324.2909453013232  ,-157.00737303417975 ,-623.4254186936087  ,101.15163503186439   ,207.8084395645362    ,175.19975464105352   ,-1.9772156245982757e-06 ,2.5839059512888243e-07  ,2.079136306823141e-06   ,      0.0 ,      0.0 ,      0.0 ,7.145615076671364e-07   ,-2.433386176884673e-06  ,      0.0 ,-1.7188247914214618e-06 ,1.6799554492853138e-06 ,0.6680492502762929   ,0.22671920633701714     ,-5.9190915712820696e-05 ,-2.3907798274609077e-06 ,0.0                    ,5.923932833835362e-05  ,0.0 ,22.084811511471717    ,4.865977230281267       ,        0.0 ,        0.0 , 0.0
 0.0 ,0.0 ,           0.0 ,            0.0 ,            0.0 ,            0.0 ,              0.0 ,                   0.0 ,1517.0 ,80.89267 ,-16.54743 ,           0.0 ,           0.0 ,       0.0 ,20.68679       ,-18.61611   ,-0.001811116     ,0.00252974       ,                 0.0 ,             0.0 ,             0.0 ,                 0.0 ,                 0.0 ,        0.0 ,3.043855523089764      ,            0.0 ,            0.0 ,            0.0 ,              0.0 ,                   0.0 ,  0.0 ,0.0 ,1400.462417520755    ,1.0                ,0.0 ,-149.86657864742998 ,-334.0024259071608  ,-4.103520139374802      ,-164.39926923086978 ,          0.0 ,          0.0 ,-149.74886988474515 ,-334.12013466984564 ,-164.39926923086978 ,-648.2682719994259  ,102.48174956853508   ,216.08944023322235  ,177.50355985219073   ,-145.0176698524657    ,-329.15347198402475 ,-4.103520139374802      ,-159.550313521699   ,          0.0 ,          0.0 ,-144.89996726136786  ,-329.27118074670955 ,-159.550313521699   ,-633.7214615297763  ,102.48174956853508   ,211.24048631008625   ,177.50355985219073   ,-2.914568399721582e-06  ,-3.9029553193828517e-07 ,2.395629252221507e-07   ,      0.0 ,      0.0 ,      0.0 ,-3.069482918222751e-07  ,-2.9979154274944177e-06 ,      0.0 ,-3.304864261686279e-06  ,1.652677629311732e-06  ,0.4055138151035946   ,0.14059267319225027     ,-4.9166721562708024e-05 ,-8.666165811683039e-07  ,8.786946872923959e-06  ,14.536061299659945     ,0.0 ,7.467113755659259     ,2.237886936205277       ,        0.0 ,        0.0 , 0.0
 0.0 ,0.0 ,           0.0 ,            0.0 ,            0.0 ,            0.0 ,              0.0 ,                   0.0 ,1518.0 ,79.97866 ,-16.71944 ,           0.0 ,           0.0 ,       0.0 ,18.98919       ,-18.61836   ,0.002093694      ,0.002658681      ,                 0.0 ,             0.0 ,             0.0 ,                 0.0 ,                 0.0 ,        0.0 ,2.5097465798445953     ,            0.0 ,            0.0 ,            0.0 ,              0.0 ,                   0.0 ,  0.0 ,0.0 ,1401.8442475888428   ,1.0                ,0.0 ,-152.26134138210494 ,-337.7026208017948  ,1.1733875832331944      ,-166.3987753093515  ,          0.0 ,          0.0 ,-152.1279240174977  ,-337.8360381664021  ,-166.3987753093515  ,-656.3627375125378  ,103.34664340211927   ,218.78761250417926  ,179.0015830374439    ,-147.43876707011998   ,-332.8800229421535  ,1.1733875832331944      ,-161.5761519720245  ,          0.0 ,          0.0 ,-147.30532615785643  ,-333.0134403067608  ,-161.5761519720245  ,-641.8949184366417  ,103.34664340211927   ,213.9649891475657    ,179.0015830374439    ,-2.0635687880376314e-06 ,2.810746925410235e-08   ,1.6385728921817184e-06  ,      0.0 ,      0.0 ,      0.0 ,3.3375749685324923e-07  ,-2.3692187392230077e-06 ,      0.0 ,-2.0354615894843577e-06 ,1.4958197648491588e-06 ,0.4377946538001737   ,0.14689289870935135     ,-5.171145854029415e-05  ,-9.056142570876092e-07  ,3.561611858723406e-05  ,11.21380720861077      ,0.0 ,7.803133269506103     ,2.3385916669692866      ,        0.0 ,        0.0 , 0.0
 0.0 ,0.0 ,           0.0 ,            0.0 ,            0.0 ,            0.0 ,              0.0 ,                   0.0 ,1519.0 ,79.05785 ,-16.93295 ,           0.0 ,           0.0 ,       0.0 ,16.87605       ,-18.62056   ,0.004455741      ,0.002024911      ,                 0.0 ,             0.0 ,             0.0 ,                 0.0 ,                 0.0 ,        0.0 ,2.8353300856877466     ,            0.0 ,            0.0 ,            0.0 ,              0.0 ,                   0.0 ,  0.0 ,0.0 ,1402.8410974686897   ,0.9999999999999999 ,0.0 ,-155.00134925124877 ,-341.18887193591615 ,6.357984044658591       ,-168.3820792563547  ,          0.0 ,          0.0 ,-154.67133592489284 ,-341.5188852622721  ,-168.3820792563547  ,-664.5723677006229  ,104.14822580739063   ,221.52414504960407  ,180.3899684980366    ,-150.69623399318363   ,-336.8837402108596  ,6.357984044658591       ,-164.07694753129817 ,          0.0 ,          0.0 ,-150.3662204757416   ,-337.21375353721555 ,-164.07694753129817 ,-651.6569215442553  ,104.14822580739063   ,217.2189623433496    ,180.3899684980366    ,-1.7784828608556474e-06 ,-2.496135170738035e-07  ,1.8670207934142758e-06  ,      0.0 ,      0.0 ,      0.0 ,2.974362146015457e-07   ,-2.3255327086158155e-06 ,      0.0 ,-2.028096796549924e-06  ,1.4574205496043602e-06 ,0.4258323153320839   ,0.048442498408735615    ,-4.302560227927931e-05  ,-3.041843585044232e-07  ,0.0009092992364503715  ,13.774668071655606     ,0.0 ,2.6209736312484035    ,0.7855033204849653      ,        0.0 ,        0.0 , 0.0
 0.0 ,0.0 ,           0.0 ,            0.0 ,            0.0 ,            0.0 ,              0.0 ,                   0.0 ,1520.0 ,78.15343 ,-17.16043 ,           0.0 ,           0.0 ,       0.0 ,14.62245       ,-18.62267   ,0.01358028       ,0.001882973      ,                 0.0 ,             0.0 ,             0.0 ,                 0.0 ,                 0.0 ,        0.0 ,2.49521858595403       ,            0.0 ,            0.0 ,            0.0 ,              0.0 ,                   0.0 ,  0.0 ,0.0 ,1404.0669302321203   ,1.0                ,0.0 ,-158.26398043086675 ,-345.8264884143971  ,11.15007014021359       ,-170.8673076754936  ,          0.0 ,          0.0 ,-157.58923749545443 ,-346.5012313498094  ,-170.8673076754936  ,-674.9578269993772  ,105.4477535619695    ,224.98594297112578  ,182.64084578185305   ,-153.64971741288295   ,-341.21222443965223 ,11.15007014021359       ,-166.25309226536808 ,          0.0 ,          0.0 ,-152.9749744774706   ,-341.8870159396839  ,-166.25309226536808 ,-661.1150341179033  ,105.4477535619695    ,220.37167708238064   ,182.64084578185305   ,-1.8978958689956787e-06 ,-1.1016650193325303e-06 ,1.6677178261627879e-06  ,      0.0 ,      0.0 ,      0.0 ,-4.245235526382772e-07  ,-2.575037900517576e-06  ,      0.0 ,-2.9995611885593592e-06 ,1.484060123916856e-06  ,0.4474072323815894   ,0.22873510535321692     ,-0.00020069374950005455 ,-1.3004740607386828e-06 ,5.889315644256224e-05  ,10.162321741311315     ,0.0 ,4.546423946621198     ,2.141877459130525       ,        0.0 ,        0.0 , 0.0
 0.0 ,0.0 ,           0.0 ,            0.0 ,            0.0 ,            0.0 ,              0.0 ,                   0.0 ,1521.0 ,77.30256 ,-17.46911 ,           0.0 ,           0.0 ,       0.0 ,11.55514       ,-18.62462   ,0.02101457       ,0.0007790697     ,                 0.0 ,             0.0 ,             0.0 ,                 0.0 ,                 0.0 ,        0.0 ,0.9291683465682643     ,            0.0 ,            0.0 ,            0.0 ,              0.0 ,                   0.0 ,  0.0 ,0.0 ,1404.4046201129295   ,1.0                ,0.0 ,-162.36400526279374 ,-349.45238190303576 ,16.332545062163362      ,-173.20570101351018 ,          0.0 ,          0.0 ,-160.88453737885607 ,-350.9318526596394  ,-173.20570101351018 ,-685.0220881793397  ,106.34598747784787   ,228.34067961608545  ,184.19665359283704   ,-157.79017942092054   ,-344.87855606116256 ,16.332545062163362      ,-168.63191875738832 ,          0.0 ,          0.0 ,-156.3107086643169   ,-346.35807040351756 ,-168.63191875738832 ,-671.3006006978887  ,106.34598747784787   ,223.76690023262955   ,184.19665359283704   ,-9.90250479919142e-07   ,-1.0445245967947145e-06 ,6.433622027581189e-07   ,      0.0 ,      0.0 ,      0.0 ,-6.945640244957631e-07  ,-1.3402115168022668e-06 ,      0.0 ,-2.0347750767138567e-06 ,6.702546576286708e-07  ,0.6541278451418633   ,0.3966675372898888      ,-0.0002355128258370266  ,-3.0987063556332058e-06 ,0.0                    ,0.00023555580319458593 ,0.0 ,11.972393926486843    ,4.573819236705806       ,        0.0 ,        0.0 , 0.0
 0.0 ,0.0 ,           0.0 ,            0.0 ,            0.0 ,            0.0 ,              0.0 ,                   0.0 ,1522.0 ,76.50961 ,-17.81492 ,           0.0 ,           0.0 ,       0.0 ,8.115126       ,-18.62643   ,0.03367944       ,0.0003906168     ,                 0.0 ,             0.0 ,             0.0 ,                 0.0 ,                 0.0 ,        0.0 ,2.4584717724275746     ,            0.0 ,            0.0 ,            0.0 ,              0.0 ,                   0.0 ,  0.0 ,0.0 ,1405.4148781334723   ,1.0                ,0.0 ,-166.79081425439992 ,-351.9278075659993  ,21.671237030145463      ,-175.12313962419083 ,          0.0 ,          0.0 ,-164.2316708890711  ,-354.48695093132807 ,-175.12313962419083 ,-693.84176144459    ,106.8394368424764    ,231.28058949024097  ,185.0513074819384    ,-162.72756679164462   ,-347.8646134883592  ,21.671237030145463      ,-171.0599455465508  ,          0.0 ,          0.0 ,-160.16842342631583  ,-350.42374982755496 ,-171.0599455465508  ,-681.6521185445192  ,106.8394368424764    ,227.21738838646797   ,185.0513074819384    ,-1.6499492265769363e-06 ,-1.657693235892177e-06  ,2.1338286335173053e-06  ,      0.0 ,      0.0 ,      0.0 ,-5.793846044368602e-07  ,-2.7282576402896076e-06 ,      0.0 ,-3.307642462469113e-06  ,1.4412713619714145e-06 ,0.6470353316966664   ,0.5505756786616302      ,-0.0011504662426923724  ,-1.045078067205095e-05  ,0.0                    ,0.001150536853753803   ,0.0 ,8.296174878126681     ,4.063212939454149       ,        0.0 ,        0.0 , 0.0
 0.0 ,0.0 ,           0.0 ,            0.0 ,            0.0 ,            0.0 ,              0.0 ,                   0.0 ,1523.0 ,76.53006 ,-18.65132 ,           0.0 ,           0.0 ,       0.0 ,-0.2482424     ,-18.6265    ,0.02063115       ,2.869559e-05     ,                 0.0 ,             0.0 ,             0.0 ,                 0.0 ,                 0.0 ,        0.0 ,2.5363581418695773     ,            0.0 ,            0.0 ,            0.0 ,              0.0 ,                   0.0 ,  0.0 ,0.0 ,1394.7837411924884   ,1.0                ,0.0 ,-174.56785574285257 ,-369.77598695382176 ,22.085121141106463      ,-183.75028409815718 ,          0.0 ,          0.0 ,-172.0517612709348  ,-372.2920796610435  ,-183.75028409815718 ,-728.0941250301355  ,112.38467478664106   ,242.6980416057637   ,194.6559578750995    ,-175.35796583251891   ,-370.56609704348796 ,22.085121141106463      ,-184.54039418782355 ,          0.0 ,          0.0 ,-172.84187136060115  ,-373.082239857132   ,-184.54039418782355 ,-730.4645054055566  ,112.38467478664106   ,243.4882018018522    ,194.6559578750995    ,-1.391937342925277e-06  ,-7.981727435813768e-06  ,3.083251777137168e-06   ,      0.0 ,      0.0 ,      0.0 ,-7.343098046159345e-07  ,-8.639353214805621e-06  ,      0.0 ,-9.373663370166512e-06  ,4.791138370051153e-06  ,0.659081496111289    ,0.841497787292402       ,-0.0029417928598539107  ,-5.215223781458701e-06  ,4.558755074663245e-05  ,-0.169670665561823     ,0.0 ,0.06308952617372077   ,-0.6175090126130152     ,        0.0 ,        0.0 , 0.0
 0.0 ,0.0 ,           0.0 ,            0.0 ,            0.0 ,            0.0 ,              0.0 ,                   0.0 ,1524.0 ,76.56241 ,-19.51076 ,           0.0 ,           0.0 ,       0.0 ,-8.841961      ,-18.62657   ,-3.248808e-06    ,0.002033914      ,                 0.0 ,             0.0 ,             0.0 ,                 0.0 ,                 0.0 ,        0.0 ,2.9968878098121223     ,            0.0 ,            0.0 ,            0.0 ,              0.0 ,                   0.0 ,  0.0 ,0.0 ,1394.4632591655168   ,1.0                ,0.0 ,-183.85237232354655 ,-385.11164419122497 ,20.511229674690554      ,-191.56705027149397 ,          0.0 ,          0.0 ,-181.64417855065156 ,-387.31978694126735 ,-191.56705027149397 ,-760.5310181203371  ,115.99158009901919   ,253.51037192113762  ,200.90328934038433   ,-191.37108607008088   ,-392.6303579377593  ,20.511229674690554      ,-199.08576401802833 ,          0.0 ,          0.0 ,-189.16289465411012  ,-394.8385030447258  ,-199.08576401802833 ,-783.0871617168643  ,115.99158009901919   ,261.029085667672     ,200.90328934038433   ,-1.6007810457413967e-06 ,-1.5834967855284447e-05 ,2.949780793395363e-06   ,      0.0 ,      0.0 ,      0.0 ,-1.4193269900687172e-06 ,-1.6016421426510195e-05 ,      0.0 ,-1.7435748409743838e-05 ,8.866841000206164e-06  ,0.8219969727634935   ,0.5120836289444582      ,-0.002034952979757041   ,7.114255644165019e-06   ,0.001257191308013348   ,-4.758189826913102     ,0.0 ,-2.758496028486368    ,-2.758496028486368      ,        0.0 ,        0.0 , 0.0
 0.0 ,0.0 ,           0.0 ,            0.0 ,            0.0 ,            0.0 ,              0.0 ,                   0.0 ,1525.0 ,79.24238 ,-22.91871 ,           0.0 ,           0.0 ,       0.0 ,-42.97205      ,-18.62151   ,0.0005349491     ,-0.00418873      ,                 0.0 ,             0.0 ,             0.0 ,                 0.0 ,                 0.0 ,        0.0 ,2.4217063521686133     ,            0.0 ,            0.0 ,            0.0 ,              0.0 ,                   0.0 ,  0.0 ,0.0 ,1409.4780478551984   ,1.0                ,0.0 ,-215.45647014245367 ,-429.22994465583434 ,6.283184492103007       ,-216.16102133423257 ,          0.0 ,          0.0 ,-215.26631421463674 ,-429.4201481826682  ,-216.16102133423257 ,-860.8475355061054  ,123.38521817644114   ,286.94921183536854  ,213.70942810626494   ,-256.50354490902527   ,-470.27701942240594 ,6.283184492103007       ,-257.2080967272194  ,          0.0 ,          0.0 ,-256.3133889812083   ,-470.4672747238077  ,-257.2080967272194  ,-983.9888122068032  ,123.38521817644114   ,327.99628660194      ,213.70942810626494   ,-4.766084184347523e-07  ,-1.9345155901569824e-05 ,1.2609781424684e-06     ,      0.0 ,      0.0 ,      0.0 ,-4.4974168707049636e-07 ,-1.937202372186796e-05  ,      0.0 ,-1.982176134214427e-05  ,1.1056964618601467e-05 ,0.9974941096458383   ,0.0038529223876152155   ,-0.00010500768162146583 ,-2.2777179650869044e-06 ,0.0024129584510203987  ,-40.76599414400482     ,0.0 ,-0.2810721564922217   ,-0.2810721564922217     ,        0.0 ,        0.0 , 0.0
 0.0 ,0.0 ,           0.0 ,            0.0 ,            0.0 ,            0.0 ,              0.0 ,                   0.0 ,1526.0 ,80.1027  ,-22.49803 ,           0.0 ,           0.0 ,       0.0 ,-38.78563      ,-18.61947   ,0.002109093      ,-0.006836451     ,                 0.0 ,             0.0 ,             0.0 ,                 0.0 ,                 0.0 ,        0.0 ,2.237790742337009      ,            0.0 ,            0.0 ,            0.0 ,              0.0 ,                   0.0 ,  0.0 ,0.0 ,1410.9182483893428   ,1.0                ,0.0 ,-211.23660123107595 ,-424.9376195127484  ,2.275383387910506       ,-213.52977862507277 ,          0.0 ,          0.0 ,-211.1373800202898  ,-425.0369158256802  ,-213.52977862507277 ,-849.7040489278734  ,122.81155942460283   ,283.2347077949013   ,212.7158526947524    ,-248.60117301439573   ,-462.3021912960682  ,2.275383387910506       ,-250.8943497630774  ,          0.0 ,          0.0 ,-248.5019262604401   ,-462.40148760899996 ,-250.8943497630774  ,-961.7977636325174  ,122.81155942460283   ,320.59927957822106   ,212.7158526947524    ,-2.1361040006410593e-07 ,-1.4193139195445403e-05 ,2.194841104936224e-07   ,      0.0 ,      0.0 ,      0.0 ,-2.115520359409024e-07  ,-1.4195199405891625e-05 ,      0.0 ,-1.4406747119510061e-05 ,8.135329849220167e-06  ,0.8024648126509141   ,0.5031210589679973      ,-0.0011870145788140138  ,-0.00011801982007708497 ,0.0012900776386318567  ,-17.453821786281242    ,0.0 ,-19.90960786593667    ,-19.90960786593667      ,        0.0 ,        0.0 , 0.0
 0.0 ,0.0 ,           0.0 ,            0.0 ,            0.0 ,            0.0 ,              0.0 ,                   0.0 ,1527.0 ,80.94556 ,-22.02217 ,           0.0 ,           0.0 ,       0.0 ,-34.04762      ,-18.6174    ,0.001102426      ,-0.0006248202    ,                 0.0 ,             0.0 ,             0.0 ,                 0.0 ,                 0.0 ,        0.0 ,1.252093471415757      ,            0.0 ,            0.0 ,            0.0 ,              0.0 ,                   0.0 ,  0.0 ,0.0 ,1410.8698286392853   ,1.0                ,0.0 ,-207.08383733928306 ,-421.4119197705292  ,-1.660815030449343      ,-211.20033294015508 ,          0.0 ,          0.0 ,-206.99529919817795 ,-421.5005394203547  ,-211.20033294015508 ,-839.6961046168431  ,122.64992841340765   ,279.8987125583327   ,212.43590022790517   ,-239.49039247419813   ,-453.8184749054442  ,-1.660815030449343      ,-243.6068211332253  ,          0.0 ,          0.0 ,-239.4017873912482   ,-453.90709455526974 ,-243.6068211332253  ,-936.9157215710229  ,122.64992841340765   ,312.30526769324774   ,212.43590022790517   ,-1.3828932422540766e-07 ,-1.5456934836349264e-05 ,-4.561328310027489e-08  ,      0.0 ,      0.0 ,      0.0 ,-1.3741382516918924e-07 ,-1.5457813790358385e-05 ,      0.0 ,-1.55952255129917e-05   ,8.885243906687452e-06  ,0.7433393439899485   ,0.6686202015632319      ,-0.0016248803732072379  ,-7.203966708793676e-05  ,0.000801940488945617   ,-9.505134115630675     ,0.0 ,-22.899854525806756   ,-22.899854525806756     ,        0.0 ,        0.0 , 0.0
 0.0 ,0.0 ,           0.0 ,            0.0 ,            0.0 ,            0.0 ,              0.0 ,                   0.0 ,1528.0 ,81.80716 ,-21.55389 ,           0.0 ,           0.0 ,       0.0 ,-29.38647      ,-18.61525   ,0.002695492      ,0.006180973      ,                 0.0 ,             0.0 ,             0.0 ,                 0.0 ,                 0.0 ,        0.0 ,2.0046760666151044     ,            0.0 ,            0.0 ,            0.0 ,              0.0 ,                   0.0 ,  0.0 ,0.0 ,1413.0616194290285   ,0.9999999999999999 ,0.0 ,-202.58445940520238 ,-415.3772755178991  ,-5.296436671166012      ,-208.07194761866725 ,          0.0 ,          0.0 ,-202.44707031829503 ,-415.51476460480643 ,-208.07194761866725 ,-826.0337312481677  ,121.4254253002724    ,275.34456118667947  ,210.31496358451767   ,-231.34304103206313   ,-444.1358571447598  ,-5.296436671166012      ,-236.83047897019657 ,          0.0 ,          0.0 ,-231.20560166982432  ,-444.2733462316671  ,-236.83047897019657 ,-912.3094268716881  ,121.4254253002724    ,304.1031428135402    ,210.31496358451767   ,7.307874361816968e-08   ,-1.2693565614021567e-05 ,8.442527644490654e-07   ,      0.0 ,      0.0 ,      0.0 ,1.4311691943378762e-07  ,-1.276360601997913e-05  ,      0.0 ,-1.2620488591516297e-05 ,7.414229852325764e-06  ,0.8033979609371438   ,0.5099089731744272      ,-0.0013120080601045567  ,-5.4901612959954734e-05 ,0.0030292486950355586  ,-11.3945411835752      ,0.0 ,-17.36283324327963    ,-17.36283324327963      ,        0.0 ,        0.0 , 0.0
 0.0 ,0.0 ,           0.0 ,            0.0 ,            0.0 ,            0.0 ,              0.0 ,                   0.0 ,1529.0 ,82.66989 ,-21.08469 ,           0.0 ,           0.0 ,       0.0 ,-24.71667      ,-18.61302   ,0.0007327442     ,0.006308107      ,                 0.0 ,             0.0 ,             0.0 ,                 0.0 ,                 0.0 ,        0.0 ,1.943294728387623      ,            0.0 ,            0.0 ,            0.0 ,              0.0 ,                   0.0 ,  0.0 ,0.0 ,1413.5147357159624   ,1.0                ,0.0 ,-199.1339734286492  ,-411.0170579820183  ,-10.505071095199947     ,-205.58455782744272 ,          0.0 ,          0.0 ,-198.543563413458   ,-411.60751553371153 ,-205.58455782744272 ,-815.7356367746122  ,121.03124887667151   ,271.91184583938116  ,209.6322663261003    ,-223.19974021942988   ,-435.08287649276576 ,-10.505071095199947     ,-229.65037633819017 ,          0.0 ,          0.0 ,-222.60933020423866  ,-435.67333404445895 ,-229.65037633819017 ,-887.9329896104523  ,121.03124887667151   ,295.9776643501286    ,209.6322663261003    ,-3.506730807530084e-07  ,-1.2246600582129626e-05 ,5.8234013123063364e-08  ,      0.0 ,      0.0 ,      0.0 ,-2.616471822424384e-07  ,-1.2335622881159845e-05 ,      0.0 ,-1.2597270046668424e-05 ,7.055232645140943e-06  ,0.8059856833860412   ,0.5216806494252904      ,-0.001363327141899748   ,-6.1000567671875495e-05 ,0.0029564880588078732  ,-11.1207683130469      ,0.0 ,-12.943756904564923   ,-12.943756904564923     ,        0.0 ,        0.0 , 0.0
 0.0 ,0.0 ,           0.0 ,            0.0 ,            0.0 ,            0.0 ,              0.0 ,                   0.0 ,1530.0 ,82.31147 ,-20.19003 ,           0.0 ,           0.0 ,       0.0 ,-15.76486      ,-18.61354   ,0.00614345       ,0.006500176      ,                 0.0 ,             0.0 ,             0.0 ,                 0.0 ,                 0.0 ,        0.0 ,3.012097563395423      ,            0.0 ,            0.0 ,            0.0 ,              0.0 ,                   0.0 ,  0.0 ,0.0 ,1415.0962175536497   ,1.0                ,0.0 ,-189.7902594860762  ,-396.06808802037926 ,-8.280244989433072      ,-197.91317386541687 ,          0.0 ,          0.0 ,-189.43217849969585 ,-396.42621873479743 ,-197.91317386541687 ,-783.771620162116   ,117.13983805457116   ,261.257190951197    ,202.89214199912095   ,-206.40622011669464   ,-412.6839983790355  ,-8.280244989433072      ,-214.52913449603528 ,          0.0 ,          0.0 ,-206.048088858352    ,-413.0421290934536  ,-214.52913449603528 ,-833.6193524478408  ,117.13983805457116   ,277.87310130985315   ,202.89214199912095   ,-5.781260236369538e-08  ,-5.98737586855277e-06   ,1.7217805998092134e-06  ,      0.0 ,      0.0 ,      0.0 ,6.97358695248958e-08    ,-6.1149242607634046e-06 ,      0.0 ,-6.045188333951823e-06  ,3.5557535130188847e-06 ,0.9954352760040148   ,0.0059028187654043      ,-0.00023434786248819863 ,-9.476657739469614e-07  ,0.006198138823036844   ,-16.420625244644242    ,0.0 ,-0.19526362539904352  ,-0.19526362539904352    ,        0.0 ,        0.0 , 0.0
 0.0 ,0.0 ,           0.0 ,            0.0 ,            0.0 ,            0.0 ,              0.0 ,                   0.0 ,1531.0 ,81.93235 ,-19.28921 ,           0.0 ,           0.0 ,       0.0 ,-6.750449      ,-18.61417   ,0.005844428      ,0.005109448      ,                 0.0 ,             0.0 ,             0.0 ,                 0.0 ,                 0.0 ,        0.0 ,2.7282561354307306     ,            0.0 ,            0.0 ,            0.0 ,              0.0 ,                   0.0 ,  0.0 ,0.0 ,1414.0336309984198   ,1.0                ,0.0 ,-181.45010438459383 ,-383.7396294664661  ,-7.410560570151183      ,-190.95028522034065 ,          0.0 ,          0.0 ,-181.09312711731255 ,-384.09663177209296 ,-190.95028522034065 ,-756.140094033055   ,114.47328634501663   ,252.04670635713353  ,198.2735867698578    ,-189.23657032196814   ,-391.52604654855213 ,-7.410560570151183      ,-198.73675115771496 ,          0.0 ,          0.0 ,-188.8795441993985   ,-391.883048854179   ,-198.73675115771496 ,-779.4993181049264  ,114.47328634501663   ,259.8330973328534    ,198.2735867698578    ,-1.14663927679775e-06   ,-8.06254728506897e-06   ,4.4444732881015375e-07  ,      0.0 ,      0.0 ,      0.0 ,-1.0593666692274289e-06 ,-8.149820289588614e-06  ,      0.0 ,-9.209186714539598e-06  ,4.5005110151056565e-06 ,0.7556357029952986   ,0.24724595351869672     ,-0.0007474419063820752  ,-1.9613853120026693e-05 ,0.003138661475721385   ,-2.152094161635561     ,0.0 ,-4.04137426247822     ,-4.04137426247822       ,        0.0 ,        0.0 , 0.0
 0.0 ,0.0 ,           0.0 ,            0.0 ,            0.0 ,            0.0 ,              0.0 ,                   0.0 ,1532.0 ,81.56544 ,-18.37423 ,           0.0 ,           0.0 ,       0.0 ,2.405861       ,-18.61482   ,7.607868e-05     ,0.004129462      ,                 0.0 ,             0.0 ,             0.0 ,                 0.0 ,                 0.0 ,        0.0 ,1.7207351664536603     ,            0.0 ,            0.0 ,            0.0 ,              0.0 ,                   0.0 ,  0.0 ,0.0 ,1414.7521710235615   ,1.0                ,0.0 ,-172.09945661654015 ,-369.71824085317917 ,-6.455903900642055      ,-183.2566686897813  ,          0.0 ,          0.0 ,-171.81862242971755 ,-369.9990977990337  ,-183.2566686897813  ,-725.0744415022582  ,111.2766203709436    ,241.69148745436001  ,192.73678398037174   ,-172.3345844860762    ,-369.95336872271514 ,-6.455903900642055      ,-183.49179655931735 ,          0.0 ,          0.0 ,-172.05375219746387  ,-370.2342256685698  ,-183.49179655931735 ,-725.7796990825933  ,111.2766203709436    ,241.9265418793486    ,192.73678398037174   ,-2.002769085903899e-06  ,-6.4848560642445835e-06 ,-6.115234588045673e-07  ,      0.0 ,      0.0 ,      0.0 ,-1.8985981801953257e-06 ,-6.589027203238108e-06  ,      0.0 ,-8.487625377738803e-06  ,3.5282555142179936e-06 ,0.4805812849252975   ,0.22735345372868707     ,-0.0006059121386418282  ,-1.782834692888295e-05  ,0.0002369112941392488  ,8.035927530789397      ,0.0 ,-3.673476189507741    ,-3.673476189507741      ,        0.0 ,        0.0 , 0.0
 0.0 ,0.0 ,           0.0 ,            0.0 ,            0.0 ,            0.0 ,              0.0 ,                   0.0 ,1533.0 ,81.22113 ,-17.45553 ,           0.0 ,           0.0 ,       0.0 ,11.59912       ,-18.61545   ,-0.004675011     ,0.003103708      ,                 0.0 ,             0.0 ,             0.0 ,                 0.0 ,                 0.0 ,        0.0 ,1.5183601620555915     ,            0.0 ,            0.0 ,            0.0 ,              0.0 ,                   0.0 ,  0.0 ,0.0 ,1409.310796399705    ,1.0                ,0.0 ,-161.82060108559097 ,-354.2817964258127  ,-5.177239144920375      ,-175.005207069042   ,          0.0 ,          0.0 ,-161.62442670867395 ,-354.4779708027296  ,-175.005207069042   ,-691.1076544574049  ,107.68993988508583   ,230.36923371816488  ,186.5244014526942    ,-157.22801916077387   ,-349.68916609093026 ,-5.177239144920375      ,-170.41257673415961 ,          0.0 ,          0.0 ,-157.03179808676705  ,-349.8853404678473  ,-170.41257673415961 ,-677.3296654118146  ,107.68993988508583   ,225.7765552192987    ,186.5244014526942    ,-2.288315647856941e-06  ,-1.736245528120095e-06  ,2.0452907820703712e-07  ,      0.0 ,      0.0 ,      0.0 ,-1.1068517121745863e-06 ,-2.9177094689413756e-06 ,      0.0 ,-4.024561418027362e-06  ,1.5418525266391253e-06 ,0.5486488026331923   ,0.14490387388882428     ,-5.353821457687612e-05  ,-8.94248637218624e-07   ,0.00018069570691467125 ,5.327017560574578      ,0.0 ,7.705202560228787     ,2.3092419259426515      ,        0.0 ,        0.0 , 0.0
 0.0 ,0.0 ,           0.0 ,            0.0 ,            0.0 ,            0.0 ,              0.0 ,                   0.0 ,1534.0 ,80.2583  ,-17.72068 ,           0.0 ,           0.0 ,       0.0 ,8.971236       ,-18.61781   ,0.002781092      ,0.003682046      ,                 0.0 ,             0.0 ,             0.0 ,                 0.0 ,                 0.0 ,        0.0 ,2.4776179464801875     ,            0.0 ,            0.0 ,            0.0 ,              0.0 ,                   0.0 ,  0.0 ,0.0 ,1418.6525206055219   ,1.0                ,0.0 ,-165.74852475899255 ,-359.53986023420595 ,0.11350254418815614     ,-177.99998783876194 ,          0.0 ,          0.0 ,-165.72183268284942 ,-359.56655231034904 ,-177.99998783876194 ,-703.2883731781952  ,108.54965830796672   ,234.42945887196714  ,188.01348491597628   ,-162.516088189976     ,-356.30737211945365 ,0.11350254418815614     ,-174.76749972400967 ,          0.0 ,          0.0 ,-162.48939267612658  ,-356.33406419559674 ,-174.76749972400967 ,-693.5909562494983  ,108.54965830796672   ,231.19701851900953   ,188.01348491597628   ,-2.0082420409671686e-06 ,-1.2012408960795738e-06 ,1.6882413286475406e-06  ,      0.0 ,      0.0 ,      0.0 ,-3.8905375132639605e-07 ,-2.820429330044435e-06  ,      0.0 ,-3.2094831947754216e-06 ,1.5320945376591717e-06 ,0.7987597707061981   ,0.1519672713667611      ,-0.00012729474333334612 ,-9.521719025299774e-07  ,0.002515911885522233   ,0.8355013224818146     ,0.0 ,8.204292492936997     ,2.4588187071391054      ,        0.0 ,        0.0 , 0.0
 0.0 ,0.0 ,           0.0 ,            0.0 ,            0.0 ,            0.0 ,              0.0 ,                   0.0 ,1535.0 ,79.29002 ,-17.97522 ,           0.0 ,           0.0 ,       0.0 ,6.449512       ,-18.62017   ,0.001428872      ,0.004620541      ,                 0.0 ,             0.0 ,             0.0 ,                 0.0 ,                 0.0 ,        0.0 ,2.4835702439407052     ,            0.0 ,            0.0 ,            0.0 ,              0.0 ,                   0.0 ,  0.0 ,0.0 ,1420.2632321247877   ,1.0                ,0.0 ,-169.1930994573213  ,-363.92247054797514 ,5.137486240032761       ,-180.379391540398   ,          0.0 ,          0.0 ,-169.00940629937594 ,-364.1061637059205  ,-180.379391540398   ,-713.494985772915   ,109.5104635355489    ,237.83165334961456  ,189.67767764788718   ,-166.60320011165464   ,-361.33254538082076 ,5.137486240032761       ,-177.7894663732436  ,          0.0 ,          0.0 ,-166.41955690500106  ,-361.5162385387662  ,-177.7894663732436  ,-705.7252618170108  ,109.5104635355489    ,235.24175390653141   ,189.67767764788718   ,-1.6416792331475297e-06 ,-4.322057381762474e-06  ,2.073452369942641e-06   ,      0.0 ,      0.0 ,      0.0 ,-6.131203760427107e-07  ,-5.350617187593021e-06  ,      0.0 ,-5.963738027120496e-06  ,2.949947122473035e-06  ,0.7582798031109564   ,-0.0030394554578451155  ,-7.492193253668909e-05  ,0.0                     ,0.0030405811787227242  ,6.411716440789553      ,0.0 ,0.0                   ,0.0                     ,        0.0 ,        0.0 , 0.0
 0.0 ,0.0 ,           0.0 ,            0.0 ,            0.0 ,            0.0 ,              0.0 ,                   0.0 ,1536.0 ,78.32698 ,-18.1159  ,           0.0 ,           0.0 ,       0.0 ,5.065111       ,-18.62241   ,0.002844575      ,0.002717753      ,                 0.0 ,             0.0 ,             0.0 ,                 0.0 ,                 0.0 ,        0.0 ,1.548301571597857      ,            0.0 ,            0.0 ,            0.0 ,              0.0 ,                   0.0 ,  0.0 ,0.0 ,1420.1825992691445   ,1.0                ,0.0 ,-171.4913224749765  ,-367.3316068017216  ,9.843745407950248       ,-182.04624367948227 ,          0.0 ,          0.0 ,-170.9363692739363  ,-367.8865600027617  ,-182.04624367948227 ,-720.8691751849597  ,110.6441645319419    ,240.28970901371343  ,191.64129644388566   ,-168.00986175270873   ,-363.85009868083165 ,9.843745407950248       ,-178.56478593119107 ,          0.0 ,          0.0 ,-167.45490855166855  ,-364.40510225447053 ,-178.56478593119107 ,-710.4247463647315  ,110.6441645319419    ,236.8082490366429    ,191.64129644388566   ,-1.999565787582191e-06  ,-7.195120266022862e-06  ,1.5069104162638402e-06  ,      0.0 ,      0.0 ,      0.0 ,-1.5994090043941557e-06 ,-7.595278977124327e-06  ,      0.0 ,-9.194688434680055e-06  ,4.057546450238508e-06  ,0.7485101340498841   ,0.23656090009718017     ,-0.00020410656002377596 ,-1.3488885281076568e-06 ,0.0007507169539735954  ,1.765524963087055      ,0.0 ,4.715679682244397     ,2.22161596332992        ,        0.0 ,        0.0 , 0.0
 0.0 ,0.0 ,           0.0 ,            0.0 ,            0.0 ,            0.0 ,              0.0 ,                   0.0 ,1537.0 ,77.41139 ,-18.36336 ,           0.0 ,           0.0 ,       0.0 ,2.611482       ,-18.6245    ,0.006905902      ,0.001931891      ,                 0.0 ,             0.0 ,             0.0 ,                 0.0 ,                 0.0 ,        0.0 ,1.9899036422167513     ,            0.0 ,            0.0 ,            0.0 ,              0.0 ,                   0.0 ,  0.0 ,0.0 ,1418.0207159870297   ,1.0                ,0.0 ,-172.58516799887013 ,-367.12969259366287 ,15.306220863441531      ,-182.4751097440641  ,          0.0 ,          0.0 ,-171.31435288959787 ,-368.4005077029351  ,-182.4751097440641  ,-722.1899703365971  ,110.71009266726483   ,240.72996516355295  ,191.75552613639954   ,-172.01148253892745   ,-366.5560071337201  ,15.306220863441531      ,-181.901449831572   ,          0.0 ,          0.0 ,-170.74064227559344  ,-367.8268970889307  ,-181.901449831572   ,-720.4689636486455  ,110.71009266726483   ,240.1563545495485    ,191.75552613639954   ,-1.2333641106316854e-06 ,-1.4022626951142402e-06 ,1.4994487336066669e-06  ,      0.0 ,      0.0 ,      0.0 ,-5.632567971262067e-07  ,-2.0723699190048112e-06 ,      0.0 ,-2.6356268057459255e-06 ,1.0929137593234611e-06 ,0.647511709341829    ,0.7263435255439511      ,-0.0017470736728338084  ,-5.939199337335099e-05  ,0.0                    ,0.0017490530802744208  ,0.0 ,2.5082047260878997    ,0.5736671160391038      ,        0.0 ,        0.0 , 0.0
 0.0 ,0.0 ,           0.0 ,            0.0 ,            0.0 ,            0.0 ,              0.0 ,                   0.0 ,1538.0 ,77.48515 ,-19.2312  ,           0.0 ,           0.0 ,       0.0 ,-6.067243      ,-18.62448   ,-0.003567743     ,0.003643864      ,                 0.0 ,             0.0 ,             0.0 ,                 0.0 ,                 0.0 ,        0.0 ,1.70122152937233       ,            0.0 ,            0.0 ,            0.0 ,              0.0 ,                   0.0 ,  0.0 ,0.0 ,1423.2075889521138   ,1.0                ,0.0 ,-181.81916455797037 ,-381.61693140146184 ,13.733817080362025      ,-190.132534168166   ,          0.0 ,          0.0 ,-180.81146639173576 ,-382.62460546537966 ,-190.132534168166   ,-753.5686060252814  ,113.92488056406076   ,251.1895351855454   ,197.32371692127717   ,-187.9471507798848    ,-387.7449176233762  ,13.733817080362025      ,-196.26052039008042 ,          0.0 ,          0.0 ,-186.9394012869289   ,-388.75261625825607 ,-196.26052039008042 ,-771.9525379352655  ,113.92488056406076   ,257.3175459784218    ,197.32371692127717   ,-7.988212120309753e-07  ,-4.725014004007128e-06  ,1.0414130349471111e-06  ,      0.0 ,      0.0 ,      0.0 ,-5.315825420515458e-07  ,-4.9922529840361575e-06 ,      0.0 ,-5.523835698084437e-06  ,2.7419055844932517e-06 ,0.7259895228240287   ,0.6893046344694183      ,-0.0016957918898960556  ,-0.00010083573449380125 ,0.000622637318167474   ,-2.3558520567384758    ,0.0 ,-3.4366826571076374   ,-3.7704315076774364     ,        0.0 ,        0.0 , 0.0
 0.0 ,0.0 ,           0.0 ,            0.0 ,            0.0 ,            0.0 ,              0.0 ,                   0.0 ,1539.0 ,77.53928 ,-20.04577 ,           0.0 ,           0.0 ,       0.0 ,-14.21268      ,-18.62451   ,-0.004322953     ,0.003820271      ,                 0.0 ,             0.0 ,             0.0 ,                 0.0 ,                 0.0 ,        0.0 ,2.667505681082996      ,            0.0 ,            0.0 ,            0.0 ,              0.0 ,                   0.0 ,  0.0 ,0.0 ,1422.4999169295238   ,1.0                ,0.0 ,-190.39377120145429 ,-395.1008735679696  ,12.787893698199595      ,-196.95983756581066 ,          0.0 ,          0.0 ,-189.55031245020646 ,-395.9442721666329  ,-196.95983756581066 ,-782.4544483228801  ,117.08410385692268   ,260.8181782052316   ,202.79561074532884   ,-202.97193802015676   ,-407.67906652690215 ,12.787893698199595      ,-209.5380305247433  ,          0.0 ,          0.0 ,-202.12846556172357  ,-408.5224651255655  ,-209.5380305247433  ,-820.1889612120324  ,117.08410385692268   ,273.3963450239341    ,202.79561074532884   ,-1.3019267898495479e-06 ,-1.5787262506176813e-05 ,1.6643476629149908e-06  ,      0.0 ,      0.0 ,      0.0 ,-1.2539248664026517e-06 ,-1.583526516215125e-05  ,      0.0 ,-1.7089190760480347e-05 ,8.807099492505111e-06  ,0.8497594296519613   ,0.3969203567001822      ,-0.0009264913864052218  ,-3.6933177983983183e-05 ,0.001553927128856296   ,-5.88285663013027      ,0.0 ,-6.69440689264006     ,-6.69440689264006       ,        0.0 ,        0.0 , 0.0
 0.0 ,0.0 ,           0.0 ,            0.0 ,            0.0 ,            0.0 ,              0.0 ,                   0.0 ,1540.0 ,77.78846 ,-20.80128 ,           0.0 ,           0.0 ,       0.0 ,-21.77172      ,-18.62411   ,-0.002797861     ,0.006031406      ,                 0.0 ,             0.0 ,             0.0 ,                 0.0 ,                 0.0 ,        0.0 ,2.8097066060814404     ,            0.0 ,            0.0 ,            0.0 ,              0.0 ,                   0.0 ,  0.0 ,0.0 ,1423.4742146184526   ,1.0                ,0.0 ,-197.65873584405995 ,-405.32766540842795 ,11.01241097247079       ,-202.55921456707875 ,          0.0 ,          0.0 ,-197.04008229840062 ,-405.9462950914698  ,-202.55921456707875 ,-805.5456316333956  ,119.05357208162846   ,268.5152317241532   ,206.20685188403868   ,-217.51518588564934   ,-425.18415512646385 ,11.01241097247079       ,-222.4157042851146  ,          0.0 ,          0.0 ,-216.89653233999     ,-425.8027848095056  ,-222.4157042851146  ,-865.1150214346103  ,119.05357208162846   ,288.37168176574255   ,206.20685188403868   ,-1.1527148714881244e-06 ,-1.8514226776653292e-05 ,1.7798946461533263e-06  ,      0.0 ,      0.0 ,      0.0 ,-1.1067012368225767e-06 ,-1.8560242726660672e-05 ,      0.0 ,-1.9666943980595668e-05 ,1.0414441909565587e-05 ,0.7086070498471495   ,0.7607574303489514      ,-0.0018606717194733207  ,-3.867579794791204e-05  ,0.0006164451469857278  ,-2.3322446824604746    ,0.0 ,-17.522367838446947   ,-17.522367838446947     ,        0.0 ,        0.0 , 0.0
 0.0 ,0.0 ,           0.0 ,            0.0 ,            0.0 ,            0.0 ,              0.0 ,                   0.0 ,1541.0 ,78.24295 ,-21.47138 ,           0.0 ,           0.0 ,       0.0 ,-28.48105      ,-18.62327   ,-0.001180269     ,0.000649765      ,                 0.0 ,             0.0 ,             0.0 ,                 0.0 ,                 0.0 ,        0.0 ,1.741192119082442      ,            0.0 ,            0.0 ,            0.0 ,              0.0 ,                   0.0 ,  0.0 ,0.0 ,1426.1230814450803   ,1.0                ,0.0 ,-203.7418042786959  ,-413.38793590883233 ,9.111961364024687       ,-207.10036761780594 ,          0.0 ,          0.0 ,-203.33986827256774 ,-413.7898719149605  ,-207.10036761780594 ,-824.2301830989302  ,120.43546446998641   ,274.74341946417536  ,208.60036965593946   ,-230.22159981625174   ,-439.8677579560155  ,9.111961364024687       ,-233.5802140569735  ,          0.0 ,          0.0 ,-229.8196638101236   ,-440.269718354128   ,-233.5802140569735  ,-903.669596221225   ,120.43546446998641   ,301.2231906097469    ,208.60036965593946   ,-6.591438038016201e-07  ,-1.9077894689908362e-05 ,1.895743062588942e-06   ,      0.0 ,      0.0 ,      0.0 ,-6.101648889609819e-07  ,-1.91268743643059e-05   ,      0.0 ,-1.973703911287082e-05  ,1.0873144988170406e-05 ,0.6133469938544361   ,1.0                     ,-0.0023595511843469913  ,-5.413269845422301e-05  ,0.0                    ,0.0023601980242827112  ,0.0 ,-26.4798061414068     ,-26.4798061414068       ,        0.0 ,        0.0 , 0.0
 0.0 ,0.0 ,           0.0 ,            0.0 ,            0.0 ,            0.0 ,              0.0 ,                   0.0 ,1542.0 ,78.73112 ,-22.18429 ,           0.0 ,           0.0 ,       0.0 ,-35.61892      ,-18.6224    ,0.0004382583     ,-0.007248252     ,                 0.0 ,             0.0 ,             0.0 ,                 0.0 ,                 0.0 ,        0.0 ,1.7410841558791066     ,            0.0 ,            0.0 ,            0.0 ,              0.0 ,                   0.0 ,  0.0 ,0.0 ,1423.551259728164    ,1.0                ,0.0 ,-209.67963201992455 ,-421.14598257859404 ,7.7082261039887605      ,-211.49122611780518 ,          0.0 ,          0.0 ,-209.38856638555646 ,-421.4370729157673  ,-211.49122611780518 ,-842.3169407163239  ,121.82667412420147   ,280.7723469054413   ,211.01000730557104   ,-243.30061316910826   ,-454.76693926491635 ,7.7082261039887605      ,-245.1122326841556  ,          0.0 ,          0.0 ,-243.00954753474014  ,-455.05807948211776 ,-245.1122326841556  ,-943.1798597010136  ,121.82667412420147   ,314.3932781745969    ,211.01000730557104   ,-3.161449830098555e-07  ,-1.9376920104816453e-05 ,1.744163857115876e-06   ,      0.0 ,      0.0 ,      0.0 ,-2.703584010673674e-07  ,-1.942270641594754e-05  ,      0.0 ,-1.9693061866526214e-05 ,1.1137045074495916e-05 ,0.7036276816968341   ,0.7523293532276508      ,-0.001738616374136422   ,-4.6554274801708456e-05 ,0.0006430426745051321  ,-8.698760927544413     ,0.0 ,-24.920495157187272   ,-24.920495157187272     ,        0.0 ,        0.0 , 0.0
 0.0 ,0.0 ,           0.0 ,            0.0 ,            0.0 ,            0.0 ,              0.0 ,                   0.0 ,1543.0 ,79.60879 ,-21.69355 ,           0.0 ,           0.0 ,       0.0 ,-30.73246      ,-18.6203    ,-2.123396e-05    ,-0.001602798     ,                 0.0 ,             0.0 ,             0.0 ,                 0.0 ,                 0.0 ,        0.0 ,2.0813630117071225     ,            0.0 ,            0.0 ,            0.0 ,              0.0 ,                   0.0 ,  0.0 ,0.0 ,1427.3521386440439   ,1.0                ,0.0 ,-204.30772465449203 ,-413.88368571148055 ,4.081854873302497       ,-207.73775359193837 ,          0.0 ,          0.0 ,-204.21995556447155 ,-413.9715077586886  ,-207.73775359193837 ,-825.9292156842821  ,120.10076036504131   ,275.30977148448864  ,208.02064329730985   ,-234.08025998413524   ,-443.6562210411238  ,4.081854873302497       ,-237.51028769076527 ,          0.0 ,          0.0 ,-233.99248966329844  ,-443.74404308833175 ,-237.51028769076527 ,-915.246867485208   ,120.10076036504131   ,305.0823068141318    ,208.02064329730985   ,-1.90647680699125e-07   ,-9.985386930802914e-06  ,2.7620166187608474e-07  ,      0.0 ,      0.0 ,      0.0 ,-1.8861502621898058e-07 ,-9.987420266309513e-06  ,      0.0 ,-1.0176031137187369e-05 ,5.712578935058813e-06  ,0.9952809468329951   ,0.009895836766258555    ,-0.00021559913643890224 ,-1.324546677337209e-06  ,0.0024219906942660515  ,-29.351475752236073    ,0.0 ,-0.42104478615423735  ,-0.42104478615423735    ,        0.0 ,        0.0 , 0.0
 0.0 ,0.0 ,           0.0 ,            0.0 ,            0.0 ,            0.0 ,              0.0 ,                   0.0 ,1544.0 ,80.44764 ,-21.11886 ,           0.0 ,           0.0 ,       0.0 ,-25.00636      ,-18.61822   ,0.003307773      ,0.005934642      ,                 0.0 ,             0.0 ,             0.0 ,                 0.0 ,                 0.0 ,        0.0 ,1.3644010017739476     ,            0.0 ,            0.0 ,            0.0 ,              0.0 ,                   0.0 ,  0.0 ,0.0 ,1427.5423093620166   ,1.0                ,0.0 ,-199.30570006307977 ,-408.55557300734904 ,0.3811413312229428      ,-204.56337287762324 ,          0.0 ,          0.0 ,-199.26043050073804 ,-408.6008942709734  ,-204.56337287762324 ,-812.4246459480519  ,119.36186431043484   ,270.80824083101396  ,206.74084110206547   ,-223.31885122325954   ,-432.5687241675288  ,0.3811413312229428      ,-228.57650058279285 ,          0.0 ,          0.0 ,-223.27355820590765  ,-432.61404543115316 ,-228.57650058279285 ,-884.4641525185709  ,119.36186431043484   ,294.8213919911937    ,206.74084110206547   ,-4.857757184718262e-07  ,-9.545683037590325e-06  ,-1.9970909448533643e-07 ,      0.0 ,      0.0 ,      0.0 ,-4.843529808848288e-07  ,-9.547107206935548e-06  ,      0.0 ,-1.0031459859450233e-05 ,5.38142750571221e-06   ,0.8034910187933058   ,0.5159175805280468      ,-0.0014333727286133622  ,-4.736797058238136e-05  ,0.0011042057581874393  ,-11.429095022278206    ,0.0 ,-12.582783328490908   ,-12.582783328490908     ,        0.0 ,        0.0 , 0.0
 0.0 ,0.0 ,           0.0 ,            0.0 ,            0.0 ,            0.0 ,              0.0 ,                   0.0 ,1545.0 ,81.37513 ,-20.63848 ,           0.0 ,           0.0 ,       0.0 ,-20.22563      ,-18.61592   ,0.003941966      ,0.007334001      ,                 0.0 ,             0.0 ,             0.0 ,                 0.0 ,                 0.0 ,        0.0 ,3.484146022345576      ,            0.0 ,            0.0 ,            0.0 ,              0.0 ,                   0.0 ,  0.0 ,0.0 ,1429.6987893164694   ,1.0                ,0.0 ,-195.0580039826118  ,-402.78354305150515 ,-3.4291574126217936     ,-201.44062309301484 ,          0.0 ,          0.0 ,-194.9590728917155  ,-402.8825735259407  ,-201.44062309301484 ,-799.2822217125296  ,118.21833197405539   ,266.427406386065    ,204.76015432794318   ,-214.85971828266185   ,-422.5852567350944  ,-3.4291574126217936     ,-221.24233739306487 ,          0.0 ,          0.0 ,-214.76078657530468  ,-422.6842872095299  ,-221.24233739306487 ,-858.6874111778995  ,118.21833197405539   ,286.2291200696542    ,204.76015432794318   ,-6.233897138683446e-07  ,-1.1864054763282109e-05 ,7.28711085181326e-07    ,      0.0 ,      0.0 ,      0.0 ,-5.474203026864067e-07  ,-1.1940024405614768e-05 ,      0.0 ,-1.2487444909094618e-05 ,6.754888389939524e-06  ,0.8173191663870353   ,0.48093938327963665     ,-0.0014033212954131622  ,-3.7925704538406524e-05 ,0.0032089671622730687  ,-11.985976383090764    ,0.0 ,-7.814475068714136    ,-7.814475068714136      ,        0.0 ,        0.0 , 0.0
 0.0 ,0.0 ,           0.0 ,            0.0 ,            0.0 ,            0.0 ,              0.0 ,                   0.0 ,1546.0 ,80.92225 ,-19.70867 ,           0.0 ,           0.0 ,       0.0 ,-10.91968      ,-18.6167    ,0.004052648      ,0.006915057      ,                 0.0 ,             0.0 ,             0.0 ,                 0.0 ,                 0.0 ,        0.0 ,3.2508974951450105     ,            0.0 ,            0.0 ,            0.0 ,              0.0 ,                   0.0 ,  0.0 ,0.0 ,1429.0557060160152   ,1.0                ,0.0 ,-186.54940689718532 ,-390.1849733816294  ,-2.206869806181197      ,-194.32990319692965 ,          0.0 ,          0.0 ,-186.4594594025144  ,-390.2749935397471  ,-194.32990319692965 ,-771.064307262593   ,115.48011507594231   ,257.02145879211173  ,200.01747451181564   ,-197.14577345948905   ,-400.78133994393306 ,-2.206869806181197      ,-204.92626975923335 ,          0.0 ,          0.0 ,-197.05582951452269  ,-400.8713601020508  ,-204.92626975923335 ,-802.8534355889583  ,115.48011507594231   ,267.61780511727136   ,200.01747451181564   ,-1.7337417410174414e-06 ,-1.3914708055684794e-05 ,-4.852243605349035e-07  ,      0.0 ,      0.0 ,      0.0 ,-1.6709464733891753e-06 ,-1.3977504060596641e-05 ,      0.0 ,-1.5648450523336702e-05 ,7.695578830036441e-06  ,0.5874427846030764   ,0.7264054921326221      ,-0.0019285076889827496  ,-5.6921099953601805e-05 ,0.00022905570487892572 ,2.587778676610762      ,0.0 ,-11.728418018464467   ,-11.728418018464467     ,        0.0 ,        0.0 , 0.0
 0.0 ,0.0 ,           0.0 ,            0.0 ,            0.0 ,            0.0 ,              0.0 ,                   0.0 ,1547.0 ,80.54705 ,-18.72363 ,           0.0 ,           0.0 ,       0.0 ,-1.063048      ,-18.61733   ,0.003031524      ,0.004523672      ,                 0.0 ,             0.0 ,             0.0 ,                 0.0 ,                 0.0 ,        0.0 ,2.771939487200394      ,            0.0 ,            0.0 ,            0.0 ,              0.0 ,                   0.0 ,  0.0 ,0.0 ,1425.2341659016074   ,1.0                ,0.0 ,-177.05177377915692 ,-376.46318514719053 ,-0.8181643333836655     ,-187.06148134365586 ,          0.0 ,          0.0 ,-176.94836387826075 ,-376.5666193095352  ,-187.06148134365586 ,-740.5764638037532  ,112.45243325673947   ,246.85881195346676  ,194.773364589771     ,-179.0805592349766    ,-378.49197060301026 ,-0.8181643333836655     ,-189.09026679947556 ,          0.0 ,          0.0 ,-178.977201538882    ,-378.59540476535494 ,-189.09026679947556 ,-746.6628495699626  ,112.45243325673947   ,248.8876260803381    ,194.773364589771     ,-1.6796069390099684e-06 ,-6.224055543085228e-06  ,9.39419190965347e-07    ,      0.0 ,      0.0 ,      0.0 ,-1.1764687754562867e-06 ,-6.7271941058677995e-06 ,      0.0 ,-7.903662724709682e-06  ,3.6491687180921584e-06 ,0.7467411909619793   ,0.2398431793355918      ,-0.0007221221706158273  ,-1.9005268777773318e-05 ,0.0027724753636055558  ,3.3673586708454772     ,0.0 ,-3.9159773258192656   ,-3.9159773258192656     ,        0.0 ,        0.0 , 0.0
 0.0 ,0.0 ,           0.0 ,            0.0 ,            0.0 ,            0.0 ,              0.0 ,                   0.0 ,1548.0 ,79.4794  ,-19.07607 ,           0.0 ,           0.0 ,       0.0 ,-4.561574      ,-18.61991   ,0.002596861      ,0.007952419      ,                 0.0 ,             0.0 ,             0.0 ,                 0.0 ,                 0.0 ,        0.0 ,1.2059441428692124     ,            0.0 ,            0.0 ,            0.0 ,              0.0 ,                   0.0 ,  0.0 ,0.0 ,1434.0401554537382   ,1.0                ,0.0 ,-181.47932419872123 ,-382.02621814431905 ,4.016321129297209       ,-190.26983098971476 ,          0.0 ,          0.0 ,-181.39000980008302 ,-382.1155325429572  ,-190.26983098971476 ,-753.7753733327551  ,113.4157243361521    ,251.25846250887707  ,196.44178383387222   ,-186.0660104510519    ,-386.61288816710726 ,4.016321129297209       ,-194.85645203033607 ,          0.0 ,          0.0 ,-185.9767308407043   ,-386.70215358357854 ,-194.85645203033607 ,-767.5353854367858  ,113.4157243361521    ,255.84511833778902   ,196.44178383387222   ,-8.280748163169206e-07  ,-2.8232477827440962e-06 ,1.0882184623221995e-06  ,      0.0 ,      0.0 ,      0.0 ,-5.017640942171665e-07  ,-3.1495590960949966e-06 ,      0.0 ,-3.6513234105381417e-06 ,1.692804287001219e-06  ,0.7787303341672628   ,0.48774719278487366     ,-0.001173041302262025   ,-0.0001133859772059608  ,0.0020752579480442335  ,1.0298885180847468     ,0.0 ,-5.529146186128739    ,-5.529146186128739      ,        0.0 ,        0.0 , 0.0
 0.0 ,0.0 ,           0.0 ,            0.0 ,            0.0 ,            0.0 ,              0.0 ,                   0.0 ,1549.0 ,78.42871 ,-19.03251 ,           0.0 ,           0.0 ,       0.0 ,-4.101868      ,-18.62232   ,-0.002914859     ,0.002926056      ,                 0.0 ,             0.0 ,             0.0 ,                 0.0 ,                 0.0 ,        0.0 ,0.5331495282159845     ,            0.0 ,            0.0 ,            0.0 ,              0.0 ,                   0.0 ,  0.0 ,0.0 ,1430.1019507115825   ,1.0                ,0.0 ,-181.2073431783436  ,-381.92258171070915 ,8.41599794483853        ,-190.01725990839014 ,          0.0 ,          0.0 ,-180.83444627229267 ,-382.2954786167601  ,-190.01725990839014 ,-753.147184797443   ,113.75606184079024   ,251.04906108929987  ,197.03129870365296   ,-184.4329623810388    ,-385.14815065753817 ,8.41599794483853        ,-193.24282885521922 ,          0.0 ,          0.0 ,-184.0600172603974   ,-385.52104756358915 ,-193.24282885521922 ,-762.8238936792056  ,113.75606184079024   ,254.27463003612894   ,197.03129870365296   ,-9.66494624777169e-07   ,-6.639423913215242e-06  ,8.396957656627273e-07   ,      0.0 ,      0.0 ,      0.0 ,-9.355899891620035e-07  ,-6.670330102392691e-06  ,      0.0 ,-7.605921096672017e-06  ,3.6115029274404074e-06 ,0.7538597211195861   ,0.4966474256709771      ,-0.0011362250433067634  ,-9.006011362883349e-05  ,0.0007939215682234147  ,1.398386742141477      ,0.0 ,-4.446717426254609    ,-4.446717426254609      ,        0.0 ,        0.0 , 0.0
 0.0 ,0.0 ,           0.0 ,            0.0 ,            0.0 ,            0.0 ,              0.0 ,                   0.0 ,1550.0 ,78.3273  ,-19.78834 ,           0.0 ,           0.0 ,       0.0 ,-11.65645      ,-18.62269   ,-0.0003846196    ,0.004700295      ,                 0.0 ,             0.0 ,             0.0 ,                 0.0 ,                 0.0 ,        0.0 ,1.2207782961972682     ,            0.0 ,            0.0 ,            0.0 ,              0.0 ,                   0.0 ,  0.0 ,0.0 ,1434.0861259858125   ,1.0                ,0.0 ,-187.5784255951774  ,-390.2194610750761  ,8.97154518922693        ,-194.82287477606116 ,          0.0 ,          0.0 ,-187.15295777559396 ,-390.6449288946595  ,-194.82287477606116 ,-772.6207614463146  ,115.3378203253813    ,257.5402433574503   ,199.77102391519665   ,-198.6824392648395    ,-401.32350440968946 ,8.97154518922693        ,-205.92688844572325 ,          0.0 ,          0.0 ,-198.25693248417087  ,-401.74894256432157 ,-205.92688844572325 ,-805.9327634942158  ,115.3378203253813    ,268.64428669206376   ,199.77102391519665   ,-4.336601414607912e-07  ,-5.7187233959556025e-06 ,1.153601677407024e-07   ,      0.0 ,      0.0 ,      0.0 ,-4.321573563584839e-07  ,-5.720226232328278e-06  ,      0.0 ,-6.15238566523335e-06   ,3.1852391832588778e-06 ,0.6290346497104347   ,1.0                     ,-0.002383302117286553   ,-0.00014693211408621114 ,0.0                    ,0.002388750416848332   ,0.0 ,-11.104001581516968   ,-11.104001581516968     ,        0.0 ,        0.0 , 0.0
 0.0 ,0.0 ,           0.0 ,            0.0 ,            0.0 ,            0.0 ,              0.0 ,                   0.0 ,1551.0 ,78.55235 ,-20.4477  ,           0.0 ,           0.0 ,       0.0 ,-18.25364      ,-18.62233   ,0.0006731925     ,0.005235408      ,                 0.0 ,             0.0 ,             0.0 ,                 0.0 ,                 0.0 ,        0.0 ,1.7108784016195488     ,            0.0 ,            0.0 ,            0.0 ,              0.0 ,                   0.0 ,  0.0 ,0.0 ,1435.0464901163136   ,1.0                ,0.0 ,-194.15274316249526 ,-399.7678150430514  ,7.905975672970351       ,-199.75055304584697 ,          0.0 ,          0.0 ,-193.83070055130284 ,-400.0898576542439  ,-199.75055304584697 ,-793.6711573925712  ,117.41475314180441   ,264.55705743236103  ,203.3683401208233    ,-210.88845707374853   ,-416.50360633214797 ,7.905975672970351       ,-216.48631309827783 ,          0.0 ,          0.0 ,-210.566423077065    ,-416.82561770667473 ,-216.48631309827783 ,-843.8783538820176  ,117.41475314180441   ,281.29280258028      ,203.3683401208233    ,-7.194573641383279e-07  ,-1.4648636263327248e-05 ,9.547585707152588e-07   ,      0.0 ,      0.0 ,      0.0 ,-6.973061814736721e-07  ,-1.467078661545071e-05  ,      0.0 ,-1.536809627544395e-05  ,8.277790437113858e-06  ,0.6221231531954424   ,1.0                     ,-0.0023851508324698447  ,-8.238095828983726e-05  ,0.0                    ,0.002387311980622495   ,0.0 ,-16.73573893719442    ,-16.73573893719442      ,        0.0 ,        0.0 , 0.0
 0.0 ,0.0 ,           0.0 ,            0.0 ,            0.0 ,            0.0 ,              0.0 ,                   0.0 ,1552.0 ,79.10592 ,-20.95002 ,           0.0 ,           0.0 ,       0.0 ,-23.288        ,-18.62122   ,-0.00248096      ,0.005698367      ,                 0.0 ,             0.0 ,             0.0 ,                 0.0 ,                 0.0 ,        0.0 ,0.5076482456462389     ,            0.0 ,            0.0 ,            0.0 ,              0.0 ,                   0.0 ,  0.0 ,0.0 ,1434.053672281404    ,1.0                ,0.0 ,-198.2673377412397  ,-405.68439014354817 ,5.688391494709962       ,-203.14978143891832 ,          0.0 ,          0.0 ,-198.08038599955557 ,-405.8713418852323  ,-203.14978143891832 ,-807.1015581179944  ,118.5319377792428    ,269.03388571090875  ,205.30336425857655   ,-220.5396944884909    ,-427.9567961777217  ,5.688391494709962       ,-225.42218698045772 ,          0.0 ,          0.0 ,-220.35274323944088  ,-428.1437474267717  ,-225.42218698045772 ,-873.918728359748   ,118.5319377792428    ,291.30624295079406   ,205.30336425857655   ,-3.1497316180667056e-07 ,-9.470533790427562e-06  ,9.167334804744693e-07   ,      0.0 ,      0.0 ,      0.0 ,-2.919355171325243e-07  ,-9.49357055680452e-06   ,      0.0 ,-9.785507474661501e-06  ,5.3988546726940825e-06 ,0.8116994654022613   ,0.4917192273117698      ,-0.0012789459115893828  ,-2.204551050607346e-05  ,0.0011594028896784224  ,-12.000640417409542    ,0.0 ,-10.270619541039204   ,-10.270619541039204     ,        0.0 ,        0.0 , 0.0
 0.0 ,0.0 ,           0.0 ,            0.0 ,            0.0 ,            0.0 ,              0.0 ,                   0.0 ,1553.0 ,79.88885 ,-20.18296 ,           0.0 ,           0.0 ,       0.0 ,-15.63729      ,-18.61923   ,0.002470548      ,0.009468916      ,                 0.0 ,             0.0 ,             0.0 ,                 0.0 ,                 0.0 ,        0.0 ,1.3900541765348615     ,            0.0 ,            0.0 ,            0.0 ,              0.0 ,                   0.0 ,  0.0 ,0.0 ,1437.7879217040745   ,1.0                ,0.0 ,-191.61856573262196 ,-396.36897970696396 ,2.5151112117538132      ,-198.08855376013153 ,          0.0 ,          0.0 ,-191.5648615014713  ,-396.42271868946904 ,-198.08855376013153 ,-786.0760991997174  ,116.43798531043898   ,262.02539973323917  ,201.67651573697378   ,-206.62799642636585   ,-411.3784104007079  ,2.5151112117538132      ,-213.09793564571225 ,          0.0 ,          0.0 ,-206.5742921952152   ,-411.4321005750497  ,-213.09793564571225 ,-831.1043936646229  ,116.43798531043898   ,277.0347816188198    ,201.67651573697378   ,-5.609907667815126e-07  ,-6.264821267683202e-06  ,-1.9223278140833404e-07 ,      0.0 ,      0.0 ,      0.0 ,-5.593717011793937e-07  ,-6.266440680798866e-06  ,      0.0 ,-6.8258123819782585e-06 ,3.4677511260378565e-06 ,0.6864318608011826   ,0.8352223633586359      ,-0.0020843808284313936  ,-0.00014020574994871718 ,0.00037586247275491836 ,-3.8887667943276707    ,0.0 ,-11.1186302707541     ,-11.1186302707541       ,        0.0 ,        0.0 , 0.0
 0.0 ,0.0 ,           0.0 ,            0.0 ,            0.0 ,            0.0 ,              0.0 ,                   0.0 ,1554.0 ,78.97603 ,-19.62912 ,           0.0 ,           0.0 ,       0.0 ,-10.07929      ,-18.62119   ,-0.004251066     ,-6.699072e-05    ,                 0.0 ,             0.0 ,             0.0 ,                 0.0 ,                 0.0 ,        0.0 ,1.9751810789869038     ,            0.0 ,            0.0 ,            0.0 ,              0.0 ,                   0.0 ,  0.0 ,0.0 ,1438.8877269682912   ,1.0                ,0.0 ,-187.2118543478601  ,-389.7915656053776  ,6.163242029598877       ,-194.38320838506405 ,          0.0 ,          0.0 ,-187.01911123476168 ,-389.9843087184761  ,-194.38320838506405 ,-771.3866283383018  ,115.11584976971939   ,257.12885511217195  ,199.3865339341346    ,-196.41366455732157   ,-398.993393073      ,6.163242029598877       ,-203.58500009541854 ,          0.0 ,          0.0 ,-196.22093870238405  ,-399.1861004288305  ,-203.58500009541854 ,-798.9920577257401  ,115.11584976971939   ,266.3306640806873    ,199.3865339341346    ,-1.2590017260989314e-06 ,-1.184926203971064e-05  ,1.2013271537844094e-06  ,      0.0 ,      0.0 ,      0.0 ,-1.2155757711368654e-06 ,-1.1892689921954667e-05 ,      0.0 ,-1.31082669011628e-05   ,6.544490925881513e-06  ,0.6281404872780224   ,1.0                     ,-0.003358956064757299   ,-9.987506751191318e-05  ,0.0                    ,0.0033616774866757236  ,0.0 ,-9.20183505396745     ,-9.20183505396745       ,        0.0 ,        0.0 , 0.0
 0.0 ,0.0 ,           0.0 ,            0.0 ,            0.0 ,            0.0 ,              0.0 ,                   0.0 ,1555.0 ,79.18906 ,-20.10823 ,           0.0 ,           0.0 ,       0.0 ,-14.87419      ,-18.62082   ,-0.004438158     ,-0.003641026     ,                 0.0 ,             0.0 ,             0.0 ,                 0.0 ,                 0.0 ,        0.0 ,2.668004305606301      ,            0.0 ,            0.0 ,            0.0 ,              0.0 ,                   0.0 ,  0.0 ,0.0 ,1440.3480072662383   ,1.0                ,0.0 ,-191.06273899167772 ,-395.10070323782514 ,5.299095293674932       ,-197.30687756831927 ,          0.0 ,          0.0 ,-190.92234579170787 ,-395.241096437795   ,-197.30687756831927 ,-783.4703197978221  ,116.1652689335575    ,261.15675787928484  ,201.20413246417078   ,-204.7319321923927    ,-408.76995675877157 ,5.299095293674932       ,-210.9760438490181  ,          0.0 ,          0.0 ,-204.5915993126543   ,-408.9102627184938  ,-210.9760438490181  ,-824.4779328001824  ,116.1652689335575    ,274.8259844802151    ,201.20413246417078   ,-1.0295795369743426e-06 ,-1.2879403501718728e-05 ,4.0107050129306376e-07  ,      0.0 ,      0.0 ,      0.0 ,-1.0202773475937033e-06 ,-1.2888706073891941e-05 ,      0.0 ,-1.3908987643901844e-05 ,7.165498649392799e-06  ,0.6234940538097401   ,1.0                     ,-0.0026931479385223335  ,-0.00011023994184055013 ,0.0                    ,0.002696851181793591   ,0.0 ,-13.669221932350716   ,-13.669221932350716     ,        0.0 ,        0.0 , 0.0
 0.0 ,0.0 ,           0.0 ,            0.0 ,            0.0 ,            0.0 ,              0.0 ,                   0.0 ,1556.0 ,85.61134 ,-21.0     ,           0.0 ,           0.0 ,       0.0 ,-23.94315      ,-18.60568   ,-0.03733679      ,-0.01622386      ,                 0.0 ,             0.0 ,             0.0 ,                 0.0 ,                 0.0 ,        0.0 ,2.3026873586666934     ,            0.0 ,            0.0 ,            0.0 ,              0.0 ,                   0.0 ,  0.0 ,0.0 ,1452.9771217309353   ,0.9999999999999999 ,0.0 ,-208.1828516871758  ,-409.8704732614105  ,-69.4382504979751       ,-205.81732637500056 ,          0.0 ,          0.0 ,-186.34605608173794 ,-431.7073174678029  ,-205.81732637500056 ,-823.87061825676    ,136.47917044213315   ,274.6235384862231   ,236.38884915756594   ,-231.98437122677547   ,-433.67196253227434 ,-69.4382504979751       ,-229.61881564586434 ,          0.0 ,          0.0 ,-210.14752702038305  ,-455.508788406448   ,-229.61881564586434 ,-895.2752127404768  ,136.47917044213315   ,298.42506082391367   ,236.38884915756594   ,-3.6530758449735605e-08 ,-8.811862240146628e-06  ,-4.377475336716983e-06  ,      0.0 ,      0.0 ,      0.0 ,5.63096004179958e-07    ,-9.411490308538145e-06  ,      0.0 ,-8.848391237326708e-06  ,5.642119032228693e-06  ,0.823807545537538    ,0.5108528079588449      ,-0.0020796073896063665  ,-0.00011635811543686132 ,0.003148483562111496   ,-15.373269452959443    ,0.0 ,-8.426447309369706    ,-8.426447309369706      ,        0.0 ,        0.0 , 0.0
 0.0 ,0.0 ,           0.0 ,            0.0 ,            0.0 ,            0.0 ,              0.0 ,                   0.0 ,1557.0 ,74.38866 ,-21.0     ,           0.0 ,           0.0 ,       0.0 ,-23.68487      ,-18.63151   ,0.03679613       ,-0.01653651      ,                 0.0 ,             0.0 ,             0.0 ,                 0.0 ,                 0.0 ,        0.0 ,3.1833221868531965     ,            0.0 ,            0.0 ,            0.0 ,              0.0 ,                   0.0 ,  0.0 ,0.0 ,1471.4911121854157   ,1.0                ,0.0 ,-208.1709613298525  ,-407.577027860293   ,70.2822414295047        ,-204.764047944359   ,          0.0 ,          0.0 ,-185.6128121374445  ,-430.135177052701   ,-204.764047944359   ,-820.5120371345045  ,136.07049879806448   ,273.5040334900224   ,235.68107144894583   ,-231.9957141448714    ,-431.40183207435734 ,70.2822414295047        ,-228.58883382620462 ,          0.0 ,          0.0 ,-209.43761635150886  ,-453.9599481999386  ,-228.58883382620462 ,-891.9865927814703  ,136.07049879806448   ,297.32880463725996   ,235.68107144894583   ,3.9563675359495657e-07  ,-1.0910101439965821e-05 ,9.847688930647387e-06   ,      0.0 ,      0.0 ,      0.0 ,2.2898607698873345e-06  ,-1.2804324389391906e-05 ,      0.0 ,-1.0514463953082117e-05 ,8.170383798460948e-06  ,0.884502455958744    ,0.4836007911858053      ,-0.0027947334881370293  ,-2.1734604460708584e-05 ,0.002409074014905149   ,-8.775395752348526     ,0.0 ,-15.046563923568467   ,-15.046563923568467     ,        0.0 ,        0.0 , 0.0
 0.0 ,0.0 ,           0.0 ,            0.0 ,            0.0 ,            0.0 ,              0.0 ,                   0.0 ,1558.0 ,85.3227  ,-21.90801 ,           0.0 ,           0.0 ,       0.0 ,-33.01031      ,-18.60698   ,0.033788         ,0.01853627       ,                 0.0 ,             0.0 ,             0.0 ,                 0.0 ,                 0.0 ,        0.0 ,2.8396220177553464     ,            0.0 ,            0.0 ,            0.0 ,              0.0 ,                   0.0 ,  0.0 ,0.0 ,1442.935452382099    ,1.0                ,0.0 ,-218.9074369366159  ,-469.05786428951944 ,-60.50874823294075      ,-232.8864313846019  ,          0.0 ,          0.0 ,-203.91861592839882 ,-484.0467305062183  ,-232.8864313846019  ,-920.8517326107371  ,154.0596084384822    ,306.9506001783802   ,266.8390759227572    ,-252.63569997469477   ,-502.7860821191166  ,-60.50874823294075      ,-266.614649214199   ,          0.0 ,          0.0 ,-237.64679500427593  ,-517.7749483358155  ,-266.614649214199   ,-1022.0363215016122 ,154.0596084384822    ,340.6787792542574    ,266.8390759227572    ,1.3313550637510796e-06  ,-6.276480536441085e-06  ,-1.3818603814345504e-06 ,      0.0 ,      0.0 ,      0.0 ,1.4595330488276086e-06  ,-6.404657107164903e-06  ,      0.0 ,-4.945124959480462e-06  ,4.203166988372894e-06  ,0.953412329185092    ,0.15500665074546446     ,-0.0011073459013411888  ,-4.5415612482865835e-05 ,0.005390446353661671   ,-29.265181206135445    ,0.0 ,-4.462406695149735    ,-4.462406695149735      ,        0.0 ,        0.0 , 0.0
 0.0 ,0.0 ,           0.0 ,            0.0 ,            0.0 ,            0.0 ,              0.0 ,                   0.0 ,1559.0 ,82.58905 ,-25.15689 ,           0.0 ,           0.0 ,       0.0 ,-65.41644      ,-18.61525   ,0.01245255       ,0.01029068       ,                 0.0 ,             0.0 ,             0.0 ,                 0.0 ,                 0.0 ,        0.0 ,3.583124968378865      ,            0.0 ,            0.0 ,            0.0 ,              0.0 ,                   0.0 ,  0.0 ,0.0 ,1341.036684662859    ,1.0                ,0.0 ,-230.90733579414962 ,-471.8454589218562  ,-11.543346974502432     ,-236.4774461753771  ,          0.0 ,          0.0 ,-229.7534661263312  ,-472.9993285896746  ,-236.4774461753771  ,-939.2301567037287  ,138.54156194219937   ,313.07669946374403  ,239.9610115703354    ,-295.65052096535646   ,-536.5886440930631  ,-11.543346974502432     ,-301.22063134658396 ,          0.0 ,          0.0 ,-294.4965929850413   ,-537.7425137608815  ,-301.22063134658396 ,-1133.4595871548397 ,138.54156194219937   ,377.8198846349508    ,239.9610115703354    ,1.8923056188238983e-06  ,-1.6512926643844163e-05 ,1.9233100102467572e-07  ,      0.0 ,      0.0 ,      0.0 ,2.0375866824487377e-06  ,-1.6658207848778426e-05 ,      0.0 ,-1.4620621541962337e-05 ,1.0303759987545114e-05 ,0.7353129601925024   ,0.7397106026331591      ,-0.002580452537377656   ,-0.00021367205682028002 ,0.0015425475077249678  ,-17.947670958417202    ,0.0 ,-46.79303928113856    ,-46.79303928113856      ,        0.0 ,        0.0 , 0.0
 0.0 ,0.0 ,           0.0 ,            0.0 ,            0.0 ,            0.0 ,              0.0 ,                   0.0 ,1560.0 ,81.6657  ,-25.42613 ,           0.0 ,           0.0 ,       0.0 ,-68.08792      ,-18.61734   ,-0.007745947     ,0.008697659      ,                 0.0 ,             0.0 ,             0.0 ,                 0.0 ,                 0.0 ,        0.0 ,2.56052525811059       ,            0.0 ,            0.0 ,            0.0 ,              0.0 ,                   0.0 ,  0.0 ,0.0 ,1450.8866104329234   ,1.0                ,0.0 ,-235.053037832155   ,-472.6626466756897  ,-8.566197288937726      ,-238.02163910314403 ,          0.0 ,          0.0 ,-234.7194422933316  ,-472.9962568636712  ,-238.02163910314403 ,-945.7372910024712  ,136.62605473707913   ,315.2457587844377   ,236.6432979102064    ,-303.8757117581653    ,-541.485335250858   ,-8.566197288937726      ,-306.84432767831237 ,          0.0 ,          0.0 ,-303.54211621934195  ,-541.8189307896814  ,-306.84432767831237 ,-1152.2052325446502 ,136.62605473707913   ,384.06843271044806   ,236.6432979102064    ,2.42776337286028e-06    ,-6.395385079777802e-06  ,9.314455966808566e-07   ,      0.0 ,      0.0 ,      0.0 ,2.452656135021268e-06   ,-6.42027784193879e-06   ,      0.0 ,-3.967621706917521e-06  ,4.582357151967411e-06  ,0.9432436096331083   ,0.1414217576823352      ,-0.0006966932690331997  ,-7.6991653277396e-05    ,0.005084524736673453   ,-59.24668660382912     ,0.0 ,-9.575674133385771    ,-9.575674133385771      ,        0.0 ,        0.0 , 0.0
 0.0 ,0.0 ,           0.0 ,            0.0 ,            0.0 ,            0.0 ,              0.0 ,                   0.0 ,1561.0 ,83.35282 ,-24.57847 ,           0.0 ,           0.0 ,       0.0 ,-59.65229      ,-18.61324   ,-0.0004018518    ,-0.005144211     ,                 0.0 ,             0.0 ,             0.0 ,                 0.0 ,                 0.0 ,        0.0 ,4.0                    ,            0.0 ,            0.0 ,            0.0 ,              0.0 ,                   0.0 ,  0.0 ,0.0 ,1449.2279353910958   ,1.0                ,0.0 ,-232.8310804381374  ,-477.7073674011255  ,-22.624237404481        ,-239.00810660720333 ,          0.0 ,          0.0 ,-230.75118439018354 ,-479.78726344907943 ,-239.00810660720333 ,-949.5465772400053  ,141.45798516150285   ,316.51554896435414  ,245.01236129253192   ,-290.6992958429368    ,-535.5755448389143  ,-22.624237404481        ,-296.8762840449921  ,          0.0 ,          0.0 ,-288.6193846215114   ,-537.6554788538788  ,-296.8762840449921  ,-1123.1512993884248 ,141.45798516150285   ,374.3837264021429    ,245.01236129253192   ,4.964252654760057e-07   ,-1.7864951700408693e-05 ,-3.0004821613158746e-06 ,      0.0 ,      0.0 ,      0.0 ,6.196376210293729e-07   ,-1.7988168993323273e-05 ,      0.0 ,-1.7368531087777733e-05 ,1.0568958331913943e-05 ,0.9442788398156446   ,0.1495063137358773      ,-0.0005940685848091279  ,-3.337036348954387e-05  ,0.0022370893276245146  ,-48.873548155015406    ,0.0 ,-8.99424064372157     ,-8.99424064372157       ,        0.0 ,        0.0 , 0.0
 0.0 ,0.0 ,           0.0 ,            0.0 ,            0.0 ,            0.0 ,              0.0 ,                   0.0 ,1562.0 ,76.64718 ,-24.57847 ,           0.0 ,           0.0 ,       0.0 ,-59.50961      ,-18.62751   ,3.929131e-05     ,-0.009600712     ,                 0.0 ,             0.0 ,             0.0 ,                 0.0 ,                 0.0 ,        0.0 ,1.8482652846413865     ,            0.0 ,            0.0 ,            0.0 ,              0.0 ,                   0.0 ,  0.0 ,0.0 ,1457.8616563167525   ,1.0                ,0.0 ,-229.91079879504144 ,-469.7509591982248  ,22.593253665925893      ,-235.41886049641863 ,          0.0 ,          0.0 ,-227.79069305096613 ,-471.8710497688286  ,-235.41886049641863 ,-935.0805805226742  ,138.77077569314577   ,311.6935289345462   ,240.3580121297947    ,-288.33867554354833   ,-528.1788587402708  ,22.593253665925893      ,-293.84673724492546 ,          0.0 ,          0.0 ,-286.218569799473    ,-530.2989265173354  ,-293.84673724492546 ,-1110.364433561734  ,138.77077569314577   ,370.12143736909934   ,240.3580121297947    ,2.047938690927296e-06   ,-1.636292827682046e-05  ,3.561842025307183e-06   ,      0.0 ,      0.0 ,      0.0 ,2.2195597888651257e-06  ,-1.6534547387482687e-05 ,      0.0 ,-1.4314988067879375e-05 ,1.02496440497178e-05   ,0.9440109066552645   ,0.14856244476293298     ,-0.00043101589667476025 ,-1.1022590867609513e-05 ,0.003173641992513811   ,-49.493122343635434    ,0.0 ,-8.934438957704423    ,-8.934438957704423      ,        0.0 ,        0.0 , 0.0
 0.0 ,0.0 ,           0.0 ,            0.0 ,            0.0 ,            0.0 ,              0.0 ,                   0.0 ,1563.0 ,77.41095 ,-25.15689 ,           0.0 ,           0.0 ,       0.0 ,-65.30805      ,-18.62609   ,-0.02084436      ,0.01722374       ,                 0.0 ,             0.0 ,             0.0 ,                 0.0 ,                 0.0 ,        0.0 ,1.297321162229794      ,            0.0 ,            0.0 ,            0.0 ,              0.0 ,                   0.0 ,  0.0 ,0.0 ,1250.25227918904     ,1.0                ,0.0 ,-223.93793819892946 ,-460.84820521129734 ,10.56159483494222       ,-230.37120170114719 ,          0.0 ,          0.0 ,-222.95966341452518 ,-461.8264097278178  ,-230.37120170114719 ,-915.157319515492   ,135.82709211700745   ,305.05243628649845  ,235.25942660859118   ,-287.5362658665854    ,-524.4464882069516  ,10.56159483494222       ,-293.969529368803   ,          0.0 ,          0.0 ,-286.5580166780631   ,-525.4247373954737  ,-293.969529368803   ,-1105.9524661189262 ,135.82709211700745   ,368.65071928215264   ,235.25942660859118   ,3.016544541724784e-06   ,-2.9957621029192787e-05 ,6.239334101883595e-07   ,      0.0 ,      0.0 ,      0.0 ,3.149198003129478e-06   ,-3.0090273218588146e-05 ,      0.0 ,-2.694107357650091e-05  ,1.8353572796937925e-05 ,0.6446280421286955   ,1.0                     ,-0.0026742925255625084  ,-9.781550127383483e-05  ,0.0                    ,0.002676093582715064   ,0.0 ,-63.598310879220335   ,-63.598310879220335     ,        0.0 ,        0.0 , 0.0
 0.0 ,0.0 ,           0.0 ,            0.0 ,            0.0 ,            0.0 ,              0.0 ,                   0.0 ,1564.0 ,78.3343  ,-25.42613 ,           0.0 ,           0.0 ,       0.0 ,-68.01853      ,-18.62428   ,-0.003782173     ,0.002310569      ,                 0.0 ,             0.0 ,             0.0 ,                 0.0 ,                 0.0 ,        0.0 ,1.2892865724123965     ,            0.0 ,            0.0 ,            0.0 ,              0.0 ,                   0.0 ,  0.0 ,0.0 ,1455.9083549084849   ,1.0                ,0.0 ,-227.69815794072855 ,-461.38530399969954 ,9.367947752377745       ,-231.63453530543745 ,          0.0 ,          0.0 ,-227.2996176840138  ,-461.7838296072563  ,-231.63453530543745 ,-920.7179825967075  ,134.14997486289752   ,306.9059735632913   ,232.3546061553533    ,-295.7037218662245    ,-529.3908679251955  ,9.367947752377745       ,-299.6400992309334  ,          0.0 ,          0.0 ,-295.3051962586678   ,-529.7893462750766  ,-299.6400992309334  ,-1124.7346546090473 ,134.14997486289752   ,374.9115374887873    ,232.3546061553533    ,1.2189185201134064e-06  ,-6.473770951894981e-06  ,1.2823495589670367e-06  ,      0.0 ,      0.0 ,      0.0 ,1.2745352162366033e-06  ,-6.5293883219330026e-06 ,      0.0 ,-5.254853105696399e-06  ,4.199162995458505e-06  ,0.7686202910700145   ,0.6168340293950916      ,-0.0014126476372889679  ,-0.00016878052370272972 ,0.0022374143178916     ,-26.410734160752313    ,0.0 ,-41.593511373563246   ,-41.593511373563246     ,        0.0 ,        0.0 , 0.0
 0.0 ,0.0 ,           0.0 ,            0.0 ,            0.0 ,            0.0 ,              0.0 ,                   0.0 ,1565.0 ,74.6773  ,-21.90801 ,           0.0 ,           0.0 ,       0.0 ,-32.76963      ,-18.63105   ,-0.0334254       ,0.01925001       ,                 0.0 ,             0.0 ,             0.0 ,                 0.0 ,                 0.0 ,        0.0 ,2.2249256001457587     ,            0.0 ,            0.0 ,            0.0 ,              0.0 ,                   0.0 ,  0.0 ,0.0 ,1460.935452382099    ,1.0                ,0.0 ,-218.84328795938774 ,-467.9931532455446  ,61.14314936557852       ,-231.8148552500001  ,          0.0 ,          0.0 ,-203.5059193455491  ,-483.33056061310316 ,-231.8148552500001  ,-918.6513352086524  ,154.0428546982987    ,306.21713215164414  ,266.81006274333015   ,-251.17354770434414   ,-500.32345174422096 ,61.14314936557852       ,-264.14511499495654 ,          0.0 ,          0.0 ,-235.8361790905055   ,-515.6608203580597  ,-264.14511499495654 ,-1015.6424115386087 ,154.0428546982987    ,338.5473918966006    ,266.81006274333015   ,1.700480767053061e-06   ,-1.5362585253943676e-05 ,8.951852942851327e-06   ,      0.0 ,      0.0 ,      0.0 ,3.0279727429857584e-06  ,-1.6690077470443348e-05 ,      0.0 ,-1.3662104019164422e-05 ,1.064547676436199e-05  ,0.7864961727406053   ,0.8386856754438423      ,-0.0035011630440908216  ,-2.7195184577963502e-05 ,0.0009363557832546345  ,-4.639111142798712     ,0.0 ,-27.687657828108406   ,-27.687657828108406     ,        0.0 ,        0.0 , 0.0
 0.0 ,0.0 ,           0.0 ,            0.0 ,            0.0 ,            0.0 ,              0.0 ,                   0.0 ,1566.0 ,85.6484  ,-20.03959 ,           0.0 ,           0.0 ,       0.0 ,-14.3452       ,-18.60507   ,-0.08237586      ,0.001134989      ,                 0.0 ,             0.0 ,             0.0 ,                 0.0 ,                 0.0 ,        0.0 ,2.210756998420141      ,            0.0 ,            0.0 ,            0.0 ,              0.0 ,                   0.0 ,  0.0 ,0.0 ,1463.9471000273238   ,1.0                ,0.0 ,-191.47684772316944 ,-351.672233868675   ,-52.38257033731744      ,-178.82687461780114 ,          0.0 ,          0.0 ,-175.09403768177805 ,-368.05504391006633 ,-178.82687461780114 ,-721.975912324414   ,110.36799568860548   ,240.65860410813804  ,191.1629933271641    ,-205.51279413659722   ,-365.7081978016371  ,-52.38257033731744      ,-192.86283855076329 ,          0.0 ,          0.0 ,-189.12998409520583  ,-382.0909903234941  ,-192.86283855076329 ,-764.0838568546947  ,110.36799568860548   ,254.69461192633162   ,191.1629933271641    ,-1.3200057846506343e-06 ,-8.770917902330706e-06  ,-3.975908906190419e-06  ,      0.0 ,      0.0 ,      0.0 ,-6.14404296671092e-07   ,-9.476521325597971e-06  ,      0.0 ,-1.009092175810465e-05  ,5.319700085734872e-06  ,0.631054272550212    ,1.0                     ,-0.004812734085876446   ,-0.00029992585722805377 ,0.0                    ,0.0048221010683341635  ,0.0 ,-14.03598764481043    ,-14.03598764481043      ,        0.0 ,        0.0 , 0.0
 0.0 ,0.0 ,           0.0 ,            0.0 ,            0.0 ,            0.0 ,              0.0 ,                   0.0 ,1567.0 ,84.59141 ,-16.87063 ,           0.0 ,           0.0 ,       0.0 ,17.36146       ,-18.60678   ,-0.003002284     ,0.005401287      ,                 0.0 ,             0.0 ,             0.0 ,                 0.0 ,                 0.0 ,        0.0 ,0.1676613165608719     ,            0.0 ,            0.0 ,            0.0 ,              0.0 ,                   0.0 ,  0.0 ,0.0 ,1468.627835384667    ,1.0                ,0.0 ,-155.74566929957496 ,-323.43495053486237 ,-23.369226821570344     ,-161.0867160388382  ,          0.0 ,          0.0 ,-152.5358035028956  ,-326.64481633154173 ,-161.0867160388382  ,-640.2673927895171  , 98.14754730467908   ,213.42244808544712  ,169.99654784878953   ,-150.94539407577224   ,-318.6346753110596  ,-23.369226821570344     ,-156.28644081503546 ,          0.0 ,          0.0 ,-147.73552827909285  ,-321.8445841914974  ,-156.28644081503546 ,-625.8665102018674  , 98.14754730467908   ,208.6221728616444    ,169.99654784878953   ,-1.5155493218545175e-07 ,-7.482515819772596e-08  ,8.77726273247569e-08    ,      0.0 ,      0.0 ,      0.0 ,-5.489876161965123e-08  ,-1.714813958280531e-07  ,      0.0 ,-2.2638016583077016e-07 ,8.757017628500963e-08  ,0.6349426133939144   ,0.2783584400595343      ,-6.455425025147333e-05  ,-5.71477586683948e-06   ,0.0                    ,6.482423412447628e-05  ,0.0 ,17.42788403074497     ,4.800289586157086       ,        0.0 ,        0.0 , 0.0
 0.0 ,0.0 ,           0.0 ,            0.0 ,            0.0 ,            0.0 ,              0.0 ,                   0.0 ,1568.0 ,74.3516  ,-20.03959 ,           0.0 ,           0.0 ,       0.0 ,-14.08121      ,-18.63147   ,0.08064716       ,0.0008350882     ,                 0.0 ,             0.0 ,             0.0 ,                 0.0 ,                 0.0 ,        0.0 ,3.175195343494579      ,            0.0 ,            0.0 ,            0.0 ,              0.0 ,                   0.0 ,  0.0 ,0.0 ,1482.9471000273238   ,1.0                ,0.0 ,-192.6210661912811  ,-350.50480197195213 ,54.08610758229406       ,-178.68176084675844 ,          0.0 ,          0.0 ,-175.1578515789729  ,-367.9680551794946  ,-178.68176084675844 ,-721.8076676052259  ,110.34233814793717   ,240.60256465697432  ,191.1185782095091    ,-206.85876730172936   ,-364.7425644871662  ,54.08610758229406       ,-192.91950584243813 ,          0.0 ,          0.0 ,-189.39561409418695  ,-382.20573521424296 ,-192.91950584243813 ,-764.5208165556339  ,110.34233814793717   ,254.84024469172275   ,191.1185782095091    ,-1.258644352499625e-06  ,-9.158106578887733e-06  ,7.40351664396216e-06    ,      0.0 ,      0.0 ,      0.0 ,2.6090217582866897e-07  ,-1.0677652408691073e-05 ,      0.0 ,-1.0416750616558326e-05 ,6.249628128166944e-06  ,0.8433264677279042   ,0.3829304530182297      ,-0.0022238526946816886  ,5.409345924293116e-05   ,0.0030223128260986427  ,-10.49185182269353     ,0.0 ,-3.7435995456343822   ,-3.7435995456343822     ,        0.0 ,        0.0 , 0.0
 0.0 ,0.0 ,           0.0 ,            0.0 ,            0.0 ,            0.0 ,              0.0 ,                   0.0 ,1569.0 ,84.47436 ,-16.78016 ,           0.0 ,           0.0 ,       0.0 ,18.26899       ,-18.60706   ,-0.003720056     ,-0.0002042384    ,                 0.0 ,             0.0 ,             0.0 ,                 0.0 ,                 0.0 ,        0.0 ,0.12447746938571491    ,            0.0 ,            0.0 ,            0.0 ,              0.0 ,                   0.0 ,  0.0 ,0.0 ,1469.2780483095867   ,1.0                ,0.0 ,-154.41067668818425 ,-322.05903103629237 ,-22.570792750156816     ,-160.29250747397555 ,          0.0 ,          0.0 ,-151.4123730938167  ,-325.0573346306599  ,-160.29250747397555 ,-636.7622475620065  , 97.79220527094604   ,212.2540738074419   ,169.38108339762053   ,-149.59216096240033   ,-317.24051531050844 ,-22.570792750156816     ,-155.47399174819162 ,          0.0 ,          0.0 ,-146.59385736803273  ,-320.2388865413217  ,-155.47399174819162 ,-622.3066680211004  , 97.79220527094604   ,207.43555808165792   ,169.38108339762053   ,-1.1251954128917621e-07 ,-5.5552744842350714e-08 ,6.516538671431969e-08   ,      0.0 ,      0.0 ,      0.0 ,-4.0758709635580944e-08 ,-1.2731362628693375e-07 ,      0.0 ,-1.6807234214638815e-07 ,6.501508017003644e-08  ,0.6363922462761027   ,0.26558764464560825     ,-5.524468452142777e-05  ,-4.9062727669792764e-06 ,0.0                    ,5.547492253057744e-05  ,0.0 ,18.318359776774706    ,4.818518351592723       ,        0.0 ,        0.0 , 0.0
 0.0 ,0.0 ,           0.0 ,            0.0 ,            0.0 ,            0.0 ,              0.0 ,                   0.0 ,1570.0 ,84.23808 ,-16.30871 ,           0.0 ,           0.0 ,       0.0 ,22.98866       ,-18.60758   ,-0.01891949      ,0.002334957      ,                 0.0 ,             0.0 ,             0.0 ,                 0.0 ,                 0.0 ,        0.0 ,3.8677035456095417     ,            0.0 ,            0.0 ,            0.0 ,              0.0 ,                   0.0 ,  0.0 ,0.0 ,1480.1711279760448   ,1.0                ,0.0 ,-147.68459363333352 ,-311.4574648340565  ,-19.186121853353573     ,-154.69984439531945 ,          0.0 ,          0.0 ,-145.45555681193898 ,-313.6864716207134  ,-154.69984439531945 ,-613.841936191635   , 94.57803278150351   ,204.61395760932393  ,163.81396387749427   ,-142.78571604396862   ,-306.5585872446916  ,-19.186121853353573     ,-149.80096680595454 ,          0.0 ,          0.0 ,-140.55670925731164  ,-308.78762737349746 ,-149.80096680595454 ,-599.1453334582778  , 94.57803278150351   ,199.71514338362215   ,163.81396387749427   ,-2.8216326307298267e-06 ,-5.528494428513262e-07  ,-1.4094241454020925e-06 ,      0.0 ,      0.0 ,      0.0 ,-3.483148766078127e-07  ,-3.026166820085549e-06  ,      0.0 ,-3.3744814066155957e-06 ,1.6557941166486224e-06 ,0.4786117213130915   ,0.13986147759031844     ,-1.687429552821246e-05  ,-5.965853677187766e-07  ,5.0870505640983e-06    ,9.176353133201678      ,0.0 ,15.56005660321893     ,3.25923662242232        ,        0.0 ,        0.0 , 0.0
 0.0 ,0.0 ,           0.0 ,            0.0 ,            0.0 ,            0.0 ,              0.0 ,                   0.0 ,1571.0 ,80.36071 ,-14.34892 ,           0.0 ,           0.0 ,       0.0 ,42.68045       ,-18.61696   ,-0.01955059      ,0.006768155      ,                 0.0 ,             0.0 ,             0.0 ,                 0.0 ,                 0.0 ,        0.0 ,2.4647745699408405     ,            0.0 ,            0.0 ,            0.0 ,              0.0 ,                   0.0 ,  0.0 ,0.0 ,1418.4845430695482   ,1.0                ,0.0 ,-121.64207126364322 ,-285.06214819502725 ,-0.824829708860718      ,-138.87151291342843 ,          0.0 ,          0.0 ,-121.62425340041666 ,-285.0799682501188  ,-138.87151291342843 ,-545.5757350023368  , 89.80925137596353   ,181.85859236535464  ,155.55417526586976   ,-116.67680926266516   ,-280.0968870707952  ,-0.824829708860718      ,-133.9062517891964  ,          0.0 ,          0.0 ,-116.65899139943862  ,-280.11470712588675 ,-133.9062517891964  ,-530.6798937233677  , 89.80925137596353   ,176.8933312411226    ,155.55417526586976   ,-2.397060494628566e-06  ,4.792067040147407e-07   ,1.5778762895629479e-06  ,      0.0 ,      0.0 ,      0.0 ,7.480069741200133e-07   ,-2.6658606550273967e-06 ,      0.0 ,-1.917853747538719e-06  ,1.8032918723832995e-06 ,0.4508000171507318   ,0.06816058087057895     ,-4.229087470727344e-06  ,-6.230159070163856e-07  ,4.3852259531930155e-06 ,18.522575901645098     ,0.0 ,24.424744330916766    ,2.8751836902793535      ,        0.0 ,        0.0 , 0.0
 0.0 ,0.0 ,           0.0 ,            0.0 ,            0.0 ,            0.0 ,              0.0 ,                   0.0 ,1572.0 ,79.63929 ,-14.34892 ,           0.0 ,           0.0 ,       0.0 ,42.69831       ,-18.61875   ,0.02243531       ,0.01058158       ,                 0.0 ,             0.0 ,             0.0 ,                 0.0 ,                 0.0 ,        0.0 ,1.598406999511903      ,            0.0 ,            0.0 ,            0.0 ,              0.0 ,                   0.0 ,  0.0 ,0.0 ,1429.4879182797558   ,0.9999999999999999 ,0.0 ,-121.53299852023919 ,-284.47617601787965 ,1.8700985756835633      ,-138.56351849282953 ,          0.0 ,          0.0 ,-121.49341299792297 ,-284.51580248146774 ,-138.56351849282953 ,-544.5727339722202  , 89.6032653463367    ,181.52424596069315  ,155.19741166225162   ,-116.56594821971598   ,-279.5091257173565  ,1.8700985756835633      ,-133.59646897427817 ,          0.0 ,          0.0 ,-116.52636308838571  ,-279.5487521809446  ,-133.59646897427817 ,-529.6715271398099  , 89.6032653463367    ,176.55719566016995   ,155.19741166225162   ,-2.6948998658487012e-06 ,2.3321774690544598e-07  ,1.0175597602535883e-06  ,      0.0 ,      0.0 ,      0.0 ,3.194642168504338e-07   ,-2.781146235044507e-06  ,      0.0 ,-2.4616818630924524e-06 ,1.709316180848196e-06  ,0.6615257577949243   ,0.11155744108538648     ,-5.174592799969045e-06  ,-8.067710026387699e-07  ,6.290243982241822e-08  ,2.9282652995988876     ,0.0 ,41.11509003599872     ,4.772010023091471       ,        0.0 ,        0.0 , 0.0
 0.0 ,0.0 ,           0.0 ,            0.0 ,            0.0 ,            0.0 ,              0.0 ,                   0.0 ,1573.0 ,75.64458 ,-16.35423 ,           0.0 ,           0.0 ,       0.0 ,22.73989       ,-18.62822   ,0.01655171       ,0.002852204      ,                 0.0 ,             0.0 ,             0.0 ,                 0.0 ,                 0.0 ,        0.0 ,2.3748544634660416     ,            0.0 ,            0.0 ,            0.0 ,              0.0 ,                   0.0 ,  0.0 ,0.0 ,1483.5694103581711   ,1.0                ,0.0 ,-150.4533711490718  ,-313.21317020725985 ,23.121290024127244      ,-155.95740633863585 ,          0.0 ,          0.0 ,-147.1783233022954  ,-316.4882180540362  ,-155.95740633863585 ,-619.6239476949675  , 95.32194682896612   ,206.54128500925705  ,165.1024620192573    ,-145.57061195839583   ,-308.3304110165839  ,23.121290024127244      ,-151.07464714795987 ,          0.0 ,          0.0 ,-142.29556411161943  ,-311.60545886336035 ,-151.07464714795987 ,-604.9756737893414  , 95.32194682896612   ,201.65852581858107   ,165.1024620192573    ,-1.5044887656603566e-06 ,-4.794254260765299e-07  ,1.8326044212907075e-06  ,      0.0 ,      0.0 ,      0.0 ,5.899185669556405e-08   ,-2.0429065769790995e-06 ,      0.0 ,-1.983914453949288e-06  ,1.1978560659224712e-06 ,0.22856150893803426  ,0.009182524137356443    ,-2.126004780794862e-06  ,-3.282393514407881e-08  ,4.4721260669733866e-05 ,22.232519516797677     ,0.0 ,0.7049691399498643    ,0.1774196032717505      ,        0.0 ,        0.0 , 0.0
 0.0 ,0.0 ,           0.0 ,            0.0 ,            0.0 ,            0.0 ,              0.0 ,                   0.0 ,1574.0 ,75.22904 ,-16.94226 ,           0.0 ,           0.0 ,       0.0 ,16.86891       ,-18.62915   ,0.007293753      ,-0.001254107     ,                 0.0 ,             0.0 ,             0.0 ,                 0.0 ,                 0.0 ,        0.0 ,1.7912435524481127     ,            0.0 ,            0.0 ,            0.0 ,              0.0 ,                   0.0 ,  0.0 ,0.0 ,1483.5614733491236   ,1.0                ,0.0 ,-158.65993659953273 ,-324.14665948677435 ,25.619683371036277      ,-161.81807606494837 ,          0.0 ,          0.0 ,-154.78120993375492 ,-328.02538615255213 ,-161.81807606494837 ,-644.6247155429364  , 98.05498684650786   ,214.87490773398108  ,169.836227598408     ,-153.87186264066077   ,-319.35858552790245 ,25.619683371036277      ,-157.03000210607647 ,          0.0 ,          0.0 ,-149.99313597488302  ,-323.2373121936803  ,-157.03000210607647 ,-630.2604607124621  , 98.05498684650786   ,210.0867903834281    ,169.836227598408     ,-1.5838134614670919e-06 ,-1.53595722114443e-06   ,2.525334690952554e-06   ,      0.0 ,      0.0 ,      0.0 ,-2.0141624145310324e-07 ,-2.918354680304419e-06  ,      0.0 ,-3.1197706364410255e-06 ,1.6314372467893093e-06 ,0.32206765315222763  ,0.026173753917288906    ,-3.085132649574318e-06  ,-9.344595131450025e-08  ,9.513262296154278e-05  ,15.705836369401075     ,0.0 ,2.006965698683565     ,0.5050931138145605      ,        0.0 ,        0.0 , 0.0
